1000
Lattice="25.45994794 0.0 0.0 0.0 25.45994794 0.0 0.0 0.0 25.45994794" Properties=species:S:1:pos:R:3:forces:R:3 Time=149999.99999957 virial="-355.78335306 -95.19834143 23.62258072 -95.19834143 -312.73422676 66.53599306 23.62258072 66.53599306 -301.99168481" energy=-8181.57827377 stress="0.00193885 -0.00576849 0.0014314 -0.00576849 0.00454738 0.00403171 0.0014314 0.00403171 0.00519832" pbc="T T T"
C       10.65709722      11.87695115      16.76027269       2.06805146       1.94461739      -0.83025050
C       24.38088900      23.58298172      10.26109304       0.56939600       3.07852960       1.11124298
C       11.72502508      19.82670712       7.69506380      -1.76350341      -0.79456282       0.71478739
C       21.42862836      14.17202776      19.15663824      -0.37043431       1.32975891       1.73972329
C        5.97784615      20.07222953      21.53109307      -0.88103756       0.60795033       0.39000523
C       22.61077960      13.00097897      17.10053561      -0.28298073      -0.24685711       3.38507937
C       24.71065204      22.86793570       5.55239490       1.51822492      -2.62803319       0.71499634
C       18.24538408      21.41527047      12.67063919      -0.06894764       1.92069283      -0.37479407
C       14.32765538       3.07618308       8.20329787       3.02178758       1.29491918       0.26846214
C       17.62594030      12.94931663       8.45593968      -1.19003099      -2.24631472       0.11901948
C       22.05090810      18.01957793       6.19805475       0.18577769      -1.47936487      -0.23397732
C       24.57432934      11.67690669       2.54224397       2.77895877      -1.12941335       2.09102672
C        9.90618778       2.72229735       1.77683581       1.05263058      -2.17237246       0.00397235
C       17.52154182       0.64999591       7.32054948       2.18065619       0.05112419      -1.81024230
C       10.23453765       9.41431327      23.62948296       2.24391425       1.25934114      -1.34494197
C       15.26878517      23.32354594      17.44700122       2.47933972       1.20769659      -3.62929785
C        9.72065177      24.06099494       0.32457333       2.06794024      -0.18908359      -1.71988860
C       23.13599117      18.55922665      19.75243259      -0.13906360       0.11202976       0.37662901
C        3.88346670       5.74516342       2.35802523      -0.20951898       0.31654505      -0.24345101
C       21.33116562      23.82182405      11.51987628       2.03203969       2.75139443       2.29181495
C       15.67150942       3.35862516       4.50762717       1.13709685       0.46870384       0.32928614
C       10.25888144       4.90154502      18.80164110       1.40658218       0.93664471      10.49915516
C        8.71564092       4.70227749       3.24236935      -1.56364906      -0.29477265       3.61361659
C        7.20870105      19.85919684      15.25711992      -0.97624907      -0.95780766       0.22479386
C       15.47162616       9.12502715       0.13797805       0.00470316      -1.01937867       1.22344410
C       22.99068335      10.08813664      20.96654031       0.54826793       1.20468789      -3.39248276
C        2.01724847      16.80176286      14.99021476      -1.97131383      -1.05470923      -0.36357360
C        2.53608011      19.10443047      11.09568777      -1.14335424      -1.04987046       0.71049154
C       10.39624667       3.18074377      23.01834274      -0.89832705      -1.37264115       0.92526731
C       17.54859922      12.05997640      18.28101108      -0.38177890       1.91529435      -0.06008960
C       16.46890489      14.44067636      12.65313524      -1.27806632      -1.54633763       1.06665628
C       10.09005971      22.62023052       7.82703852      -2.98475841       1.28354689       2.04820466
C       16.55174892       8.74809615      22.67898924      -0.43230204       0.26731163       0.57683259
C       19.25460508       7.31635753      20.05081998      -2.36870581       0.30842605       0.51012671
C        3.43956140      21.61055936      10.68714846      -0.59966763      -0.18199056      -2.00405860
C       14.68551190       6.28392997      10.74353126       3.47845912      -3.28144026       4.95840150
C        1.48064040      22.25030467      10.33619512       1.56889576      -0.10045877       1.49979132
C       20.17148325      24.06255627       2.78923195      -0.80021928      -0.00196776      -2.92409992
C        0.08315580       4.77587648       4.04869473      -2.17280555       2.80706111      -2.66563237
C        9.28038409      22.59070046       2.24540682       4.90423024       0.37716123       3.08143258
C       20.20829104      24.24443776       1.38395394       0.94530321      -0.13647643       1.88921501
C       10.33922320       4.28887947      12.71224119      -3.81160752       0.75868723      -1.02323346
C       14.95791181       1.38326729      22.92131872       2.22568929      -4.45186606       2.31808192
C        2.64159206      20.03028388      21.91421228      -1.18555066       1.66755444       4.88449201
C       20.94887486       7.97776022       1.04901662      -1.41093883       1.48858707       0.32673949
C        0.36873387      16.28052604       2.77612607      -4.82021165       0.51949632      -1.65129709
C        0.72222339      13.25662673      16.56393867       1.11615449      -1.31872438       0.64730217
C       22.03366813      14.61156331       7.27361805       3.92965999      -1.76706000      -1.94526660
C        0.42712039      19.68963374       4.87379473       0.47721352      -1.22458541       0.70060736
C        4.67209674      19.15450509       1.49741382      -5.44245845       3.04468706       0.14117759
C       17.87480352       5.92751904      24.99884091      -0.59212678      -1.45196366      -0.31603843
C        6.54741371       3.83405494       5.07681185       0.88785520       1.02112401      -0.49532341
C       16.29073414      18.95656961       1.79793327      -0.43807171      -0.44734113      -0.89073780
C        5.56445339       2.96979731       5.32714546      -0.34140801       0.15652573       0.25303942
C       19.47819174      24.40370017      16.50381939      -9.23823643      -1.50311482       2.51538798
C       22.38397268      13.72720531      11.49842417      -1.44770361      -0.24854901      -0.96325207
C        1.31584096      13.78345358       5.54778769      -0.37434935       3.62071270       0.13564384
C        4.94174925      11.03692848      14.54450737       0.51430383      -2.84536338       0.50612134
C        1.18708799       9.27367032      13.70303773      -0.10322910      -0.82715802      -0.80629462
C       12.88489173      14.48635167      20.79226988       0.36875018       0.11524731      -0.26694421
C       25.42485198      22.15539328      14.45626088      -0.72216728      -1.25602591       1.96325809
C       19.30304594      20.87156164       4.28453438      -2.13183236       1.58649625      -0.42369509
C        7.60228197      16.06114522       0.29284543       0.63961609       1.82394069       1.63210607
C       12.04965072      12.11933360       5.60786475       1.89043659       5.34303075      -1.51118964
C        8.37030941       3.44610126      11.80702502      -1.92252266      -0.37982383       0.61661197
C       24.97080296      24.68631950      16.10357439      -0.65782462       0.57751885       1.67548627
C       24.17704267       1.84469585       5.34460209       2.20899636      -2.24010432      -1.07147253
C       15.37913558      10.35026144       8.06585342       5.39435351       1.91849204      -0.07692756
C       11.08533665      16.14146113       0.17211279       0.57550677      -2.63501734      -0.39808869
C       13.66484674      16.52745749      22.86748195       4.07005915      -2.24268311       0.20290127
C       16.95965251      22.54904182      20.05220189       0.04724206      -1.41376889      -2.71701324
C        2.49011042      24.48861287      12.91879103       1.32129824       1.01166403      -0.14490877
C        6.62818530       4.71889875       0.91928409       1.32241651       0.84499615      -1.28404550
C       21.31381224       9.63984068      18.29545215       0.33724757      -0.15232440       1.68181765
C       20.22227420       0.18683600       6.37050329      -1.13871995       0.09020713       1.14611922
C       23.04352466       2.39688274       1.21256215       2.70329276       3.11641431       3.34276825
C        0.60677148      23.74567064       3.65245815       1.68224674      -0.83159328      -0.13114994
C       16.34179496       3.94023401      13.90230370      -0.97683550      -2.09004325       2.96422103
C       14.48115505       9.84290776      25.03615886      -0.76555336       0.85097110       2.67055875
C       18.96874833       2.52654078      13.61575178      -1.36115748       1.48079148      -2.16486639
C        8.21907880      13.80699131      23.12804037       0.90815620      -0.20317392      -0.02701536
C        8.75245562       2.70440697      20.75766405       1.18191999       1.84720206      -3.05759844
C        4.48828550      17.21542811      15.58300603       1.50346833       1.48267418       1.20834312
C        4.58856412      11.51044786      24.49899695      -1.63031381      -2.97743237      -1.04622477
C       24.61954937      25.06930489      20.80895850      -3.35714218       2.47164464       0.65096133
C        0.79007412      18.10151430       5.38714368       0.37674688       2.47122335      -0.48763832
C        9.65841944      17.08700599       8.97658744      -5.14187244      -0.37368059       0.49667169
C       10.92063872      25.23383084       2.86279627      -4.95839226      -2.23667443      -0.53922399
C       14.59962459      13.83134979       8.03074862       1.25176128      -1.15587336      -0.04198849
C        9.42641819      20.90569295      16.17366226      -2.12721291       0.22651148       0.88063303
C       18.60994495       4.70238710      15.72893282       0.97948625      -0.20281155      -0.11635068
C        6.08972473      16.44410912       7.18721122       0.43660411      -0.23171982      -1.26251045
C       24.77154294      22.54287604      20.81266877      -2.13717461       0.28745097      -2.99514544
C        8.09339495      22.47150433       1.92901425      -6.14442807      -0.55512687      -1.34893334
C       21.11231917       6.56688905       5.68028498      -4.39568317      -1.38392133      -3.98591337
C        3.28225792      24.35778307       6.73252366       0.24527457      -1.85668111       0.04179102
C        3.00067600       2.88552368       4.92832917      -1.35155737      -1.50161599       0.40093331
C        5.14959385       2.62778042      10.11282706      -1.21098274      -0.06977400       0.83196889
C        7.96312090       1.13395745      23.73088361      -3.38554382      -3.50768751       1.90369615
C        1.77553219      10.98210700       6.19071483       3.36921422       2.41945903       0.88497150
C       10.53206917      15.23640891       6.93354976      -1.77962692       2.59325942      -1.38003641
C       23.26003187       2.54701588      21.13692073      -0.59509295       0.87929171      -2.92128409
C       17.64975643      10.41437601       2.11738313      -1.03910084       0.72538984      -2.57102721
C       15.22998779      11.59401014      10.90435143      -1.67314637      -1.69151130       0.54277192
C       16.79141548       4.50930481       8.45630969      -1.15479661      -0.12689841      -0.57497287
C        6.10969303      19.69476654       4.26584515       2.30590010      -1.01176140      -2.20636001
C       11.19226709      11.54343743      10.73137936      -0.65884829      -0.96874762      -0.41682261
C       12.42444663       0.50750899       9.15872547      -3.23431015      -1.61617627      -0.69007845
C       23.48570661       7.42471827      16.51791972      -0.26131386       0.67217342       0.63083912
C       18.48898316      23.00251648      22.04088898       0.55618406      -1.70053723       0.94646645
C        7.39793325       7.53447294       5.22987265       0.48720235      -0.21077246       0.14451328
C        0.90966952       1.95867051      14.48491999       0.47557539       0.82648844      -2.11134279
C       22.60811112       3.18087139       2.59394465       1.09894066      -0.91069613      -1.42615461
C       13.20842359       9.29667721      11.24766059       0.82123119       0.64631480       1.57312733
C        4.30727057       5.45282338      18.38748495      -2.77480929       0.88716716      -0.93007617
C       22.98670719      15.06000982       2.12964062       0.04080939       0.80272698       0.54510546
C       23.66349474      20.66986283      11.21509689       0.30543372      -1.38880193      -0.52479234
C       19.16142081       7.78670472       3.30423954      -2.88505484       5.37685240       1.51462463
C        8.14543851       6.58640667      13.58073594      -2.22218466      -2.71904057       0.86437261
C        3.15809708      20.13263328      10.36358830       2.43829283       3.36957875       1.64419818
C       16.97091057      23.89328380       3.79836712       1.25138730       0.99316645       0.15094183
C       18.85765664       0.53575458      19.75271272       0.60318643      -0.31165490       0.36590594
C       19.28705777      10.75775569       3.73778877      -2.37656727       1.17029824       2.29219353
C       22.79086262       3.18677873      19.92268338       1.46981227      -1.22858578       3.59395297
C        1.54390979      15.39134273       5.86884784       1.17348087      -2.66692019       1.38923163
C        6.16407770      11.50330332      11.43904040      -1.00780022      -7.54286247      -2.78752297
C       12.51123728      18.69114980      16.41352618      -0.33615682       0.37717762       1.45398426
C        4.70113513       8.56297406      13.15112427       1.85834616       0.23049852       0.87064807
C       25.23973049       0.72988077      24.60265325       0.70599568       0.57600763       0.06933379
C        0.19588805      21.88376801      16.01644691      -0.10236661      -2.52064574      -4.26290905
C        3.36117478       4.37830705       8.01298375      -3.30303988      -1.10350813       8.05231988
C       23.94522226      12.20574718       8.04832112      -7.24480307       1.47888702       1.08496250
C        7.18175201      19.16977967      11.66643822       0.31289083      -0.55343509      -1.14756691
C       23.91960378       0.50948265       8.05216342      -3.94106513      -1.25723177       2.95068532
C        9.95362058      19.24150022      22.19095507      -2.58796120       3.57894213       3.34774590
C       17.12246721      16.58968265      21.71945694       1.57263538       0.34395914      -1.79825985
C       22.65771116      10.09722811      13.26408036      -2.80669142       0.26618516       0.37587719
C       24.60499377       2.06347289      17.35057311       3.21119362      -2.18400729       1.84429485
C        3.93998800       6.76251546      23.49034393      -1.13014175      -0.39541960      -0.46989303
C       18.16728633      11.35638494       4.37023069       1.85391000      -0.88558593       0.46521643
C        4.10405402       2.14261762      18.38107718       0.84118852      -1.05006900      -2.79905403
C        8.81333244      19.67764183      23.31217088       0.47359997       0.68402472      -1.70600699
C       18.48333736      11.68358390       8.05713735      -1.00657495      -0.58832183      -0.09418958
C        4.11022506      19.98823787       6.04153712       1.47541815       3.56311405      -4.98065829
C       19.52973967      17.54280875       4.57769362      -1.40594050      -0.84654662      -0.52465510
C       24.77876204      25.34903731      13.47775856      -0.28679544       0.75803095      -1.51247178
C       10.13199029      21.60736986      12.22085474       4.60290178      -0.67416904      -2.89732426
C        1.43862801       4.03001836      18.45199414      -3.41166502      -0.37404706      -0.45854334
C       10.49276965      19.72586940       3.28825729       0.80178595       0.03858732       0.72753280
C       14.13816068      13.33881797       0.78857381       0.00243127      -0.80874617       0.13362289
C       12.65050694       3.60759829       0.72054842       1.18834487       0.18406254       1.34393023
C       20.23221886      18.40517697      20.75575612      -0.21297252      -0.80506267      -2.18428979
C        7.64915773      11.43165974       4.86686641       2.26257184      -0.28744070       1.21979144
C       22.10470640       3.65560495       6.57684167      -2.75579751      -0.27184141      -1.14645173
C       16.79023200      25.12840927       4.42270066      -0.46881020      -1.21620157      -1.31705374
C        6.42353800      16.26357512       5.63133726      -0.16900873      -0.08097734       2.82320637
C        6.89632226       5.68958902      17.22533819      -0.58813211      -2.16820189      -0.21131366
C        4.70805963      24.47173358       0.47809539      -2.44208702       1.83245015      -0.65637044
C        0.31580470      19.21549454       1.37961403       1.16417089       2.41392416      -0.91758394
C        5.58909379       1.24831155       7.41682681      -1.03755003      -0.89195886       0.90630212
C       22.61536441       8.62209351       3.08790338       1.37840655       2.08918822      -0.81943446
C        9.54927021      17.76451683      17.81786865      -1.67659328      -2.72986615      -1.50021981
C       11.41163519       4.26693593      13.40789918       3.20530178      -1.25535250       3.07722604
C       19.28271070      17.57023022      11.53695788      -0.39891743       0.73710343       0.29706746
C       21.63984866      10.48052912      14.23048324       0.47079803      -0.44313064      -1.47217858
C       13.82203665      12.09674933      23.20136279       3.99825577      -4.05063479      -5.66954362
C       22.88755447      16.81469147      17.01644194      -3.68139997       1.48883852       5.26426309
C       12.77330926      16.12498337      16.88595340      -0.78774270       0.77475102       0.24768020
C        7.55163532       0.11020174       3.06522726      -2.26426038       0.44655713       0.82685286
C        5.34416445      15.20258058      14.78590954      -0.92941932       0.48355574      -1.30606371
C        5.90503910      11.09682982      19.29930235       0.35673797      -0.45753720       0.09163526
C       20.50497081      21.38942106      20.14227773       0.31769393       1.04687840      -1.13665603
C       17.27670113       4.17984192       7.20959197       3.60203373       0.92111573       2.34147462
C       23.51683527      15.22704623      23.94110996      -1.22729275       4.28153515       0.64100543
C       21.02683088      10.18410078      24.82259929      -2.01630121      -1.56867476      -2.95435333
C       23.58243508      12.09487555       1.84038295      -2.37896860       0.78493942      -1.53496062
C       17.83884751       0.98581107      24.60954885      -1.14711744      -0.78788039       2.65309182
C        2.47553932       6.22544856       5.07472545       0.19685867       0.53977117       1.05443893
C        1.83659940       3.46497509      22.50407333       0.26037061       1.55385479       2.14518784
C        9.74266967      13.45318700      18.94007082      -1.44471443      -0.08612375       0.73555003
C       10.07153534      22.25103077      13.48753923       3.32735025       3.01505714       2.06408161
C       15.76358784      20.18593407      10.42045992      -2.42086378       2.07105678       0.40487725
C        5.26548449       1.97247318      14.01021213       2.74443074      -2.08644170       0.11973053
C        5.65037399      10.16868195       3.71616604      -2.72338673      -1.33680281      -2.35313606
C       17.22525168      10.83026315      13.89273052       0.36634488       0.17532104       0.61486247
C       22.03090386      18.45592787       1.02218293       0.95093027      -1.09192020       1.01074225
C        5.74576834      11.95459659      24.91902931       2.41721579      -0.36480495       1.66566810
C       18.27532386      15.41422955       7.04200393       0.71060748       1.93850294       0.60346693
C       10.66281601       7.54050173       5.56959504       1.89619458      -1.66979430       0.57687581
C       21.91561724       1.96784736      15.87818728       2.20280042       4.03335941      -3.74907287
C       14.40711662      15.85510435       2.87683069       1.32200745      -2.28551984       0.29825796
C        4.37478310       2.85544571      13.74471522      -3.70851834       1.92433457      -1.13774101
C       17.01790323       6.46185508      17.26432448      -1.87280738      -0.08888549      -0.46201306
C       21.34258167       8.21572422      11.46759363       1.07127073       0.28979316      -3.94989467
C       25.05362932       6.79301992       7.46887557      -0.12379745       0.20257317       0.90803450
C       24.60323693      16.19456497       9.21337697       2.34241855      -0.50760290       1.67943296
C       21.47576221       5.52195743      10.16840575      -0.62139755       0.01691592      -1.54349972
C       21.75450729      23.70589392       5.04051093       0.40540566      -1.28511000       0.56102899
C        0.41544057      21.96127446      24.11460453      -0.29681115       3.97153550      -0.71385756
C       22.51252049      12.64471312      15.87243359      -0.89715323       0.01386821      -4.27430135
C       20.67002963      14.60831176       8.96108065      -4.09255674      -0.54929009       1.83253773
C       14.85398814       0.36761270       7.93543570      -0.37847077      -0.37687211      -1.71036106
C       11.60824109      18.97862135      10.83386572       0.75317913      -1.87693125      -2.39186646
C       15.25059946      21.53000415       4.70370754      -0.82181055      -3.72326070       2.81095815
C        9.06167575      14.95390614      10.59466122       1.17104653      -0.10475400       5.98744640
C        1.92340346      22.61421141       5.59893630       2.90455766       0.47533481      -2.44367284
C        8.49817240      12.68063879      15.08043851      -1.33071834      -0.07521608      -3.77783787
C       13.37614541      20.52397930      12.88886805       1.72168869       0.52296565      -0.25479607
C       15.81095436      16.74598913      19.37716938      -0.09449840      -0.45467063       0.98943477
C        9.41609190       2.20588582       0.59324315       2.28768331       0.23032302       1.69398350
C       23.39468951      22.28459548       2.81905309      -0.15213723      -0.99896029       0.72303468
C       14.78025533       7.55334284       5.60766746       0.61537936       0.62802929      -3.67643583
C       18.73938078      16.77014214       7.58564147      -0.84709400      -1.97904667      -0.57773239
C       22.57576798       0.77815185      16.19832544       0.16537482       0.31974263       0.79799630
C        7.95722320       9.77319354      18.00285852      -1.58876944      -4.97267246      -1.07867860
C       15.20742353      22.98941117      25.17724492       2.91806572      -0.90950331      -0.96556705
C        7.14080236       0.29665285      24.57721245       2.57175425       4.60349005       1.69171482
C        7.12848276      17.20567479      21.41080762      -6.64086723      -5.16503572      -0.08000603
C       12.14556064      23.08037510      15.92388738       1.61140037      -1.18383682       0.05987787
C        6.02824723      12.72127145      11.40610343       0.01528543       5.27217358       1.24144450
C       21.37618806      12.56944416      10.60538877       2.68203858       1.99153757       1.43404943
C       24.82151431      19.91558553       7.28136618      -3.81374326      -1.10806632       2.38394175
C       25.27277659       5.26189514      13.33108959       1.44871119      -0.30699899      -0.28531682
C        7.78719680      17.13537248       1.47543537      -0.00229248      -2.14887357      -2.87240654
C        4.61653229      14.30203014       3.23627990       0.17153997      -1.16468155       0.69035253
C       13.96575094      20.55233458       5.08598338       0.63693564       3.40881073       4.33267152
C       12.83816378      17.40511527      22.66651105      -3.67613953       4.72666004      -0.87908053
C       18.62742788       9.06570206      16.25761073      -2.34616494       2.44825879      -2.57341215
C        8.81353193       6.40503549       8.93888547       0.19096789       0.10556555       1.57439473
C        7.02445408       5.49378092      14.47281408       1.37971327       3.84004825      -3.44372821
C       20.39858501      18.03994947      14.30231904       0.56394555       2.18303396      -1.55774808
C       13.05962816      21.81232645       2.09443266       0.78744206      -0.57074761       0.19222518
C        1.32336929       2.21400428       1.35933250       2.37869141       0.68618816       0.07696003
C       12.48703905      13.36149114       4.99739680      -0.42231447      -1.28242725       0.50473075
C       25.36437854       4.23642546      17.92773331       3.02738178       0.22004440       0.65355252
C       13.93215293      23.72589763      22.37823210       0.09554829      -1.80877945       2.15522516
C       11.38532164       5.78441875       3.54199230       2.28374213       0.51516964      -1.63729669
C        4.44039259      13.96009773      25.16814453       1.92321962       2.38030654      -0.02197756
C       20.78187103      21.97044691      18.78086446      -2.22764474      -0.73672134       1.00163741
C        8.55940147      23.38556920      22.34977535      -1.68487531      -2.88183835       3.22027165
C       13.55979775       5.37252895       6.79511813      -0.26269913       0.45509025       0.95161292
C        7.15906064       8.67111868      10.24924964       0.71929944       0.11642697      -0.42254567
C       22.92656266      21.38510487       0.46889731       2.24877223       1.00692156       0.30955653
C       16.25601040      11.53787316      14.69559341      -1.73514822      -0.62942246      -0.18354964
C       21.00744441       4.50013815      24.73273811       1.04058933      -0.16674966       1.31546834
C       11.26908476       7.42515266      12.82667910      -0.66753366      -0.35352859      -1.16588759
C       23.47941606       1.91100847       9.29791183       3.47657233       0.64830169      -1.18637085
C       17.01202623       0.67769753      11.49443723       1.40859032      -1.17227900      -1.51874413
C       14.39361169       4.32246048      22.48340875       0.31123131      -1.23179758       0.49050486
C        8.30880612      16.80362044      21.93229794       3.86290699      -2.30986676       2.79351626
C       19.05697922      14.40380866      21.31430598      -0.44913033      -0.02636287      -0.39841956
C        3.68935246      25.31169466      21.17941696      -0.37581867       0.52402720      -0.07301813
C       25.35783266      19.52741684      13.65409019       0.72969227      -1.99358082       1.57267550
C       22.27286273      20.54947863      11.41382181       1.28959082       0.55924652       0.42009698
C        6.55943846      18.45196155      10.58515973       2.68787444       0.16200198      -0.28339678
C       14.68975100       5.21565921       0.35177722       1.67146760       3.29253519       0.23404521
C       22.96024737      17.66626831      12.26631991       0.43631417      -0.78132924      -1.16986856
C        2.15320156      24.75207959      24.76712996      -0.06381931      -0.82126647      -0.47497003
C       17.84854421       7.72304661      20.24120813       1.50913668      -0.95243457      -0.09978079
C       22.90726400       8.34189887      23.74110696       0.41543746      -5.49297285       2.68701911
C        5.85257775      23.91293060      20.68440822      -0.73316249       0.56996056      -0.58338058
C        9.05903563      24.59456423      21.91148562       1.42973575       2.00161201      -1.80812584
C       10.22097547       9.80855847       3.58872079      -2.68420690      -0.41536559      -1.85002208
C       22.29614947       5.16484278      17.59439905      -2.38826239       0.47967991      -1.85525388
C       16.99319777      17.83464216      13.72555815       0.26094562      -0.22206831       0.76082827
C       16.60885080      21.41385778      14.56410327       0.73419356       1.70802860       0.46504889
C        7.68397145       3.32488675      16.19322008      -6.90864101       3.99252469       1.44555813
C       12.25809665       6.33014099       2.58040240      -1.53581962       0.01362854       2.25060308
C       23.39457617       4.89773265      14.42435578       2.15977481      -2.61498322      -0.67006016
C       13.31771496      16.56691597       2.47504899      -1.10804970       1.98545877      -0.05899227
C       11.03632484       0.90630641       8.87142870       2.09803450      -1.27651624       2.15204453
C       22.15120391      12.16761117      23.52041466       0.54192698       1.34215325       0.85373679
C        4.08053554       1.69722339      16.68844211      -4.48600829       1.26789182       2.87288821
C        6.64987911      13.38471302      16.76701729      -1.59392196      -0.21835662      -0.55984449
C        1.79404676      24.39245194      15.79802363      -0.43671352       4.54448542       2.28622085
C       12.52073718      23.04997677      11.36213876      -7.45663545       3.00096691      -0.78767353
C       19.17213018      19.42992992      11.12204627       1.02638924      -1.69077319      -0.00960920
C       17.52293468       4.56723501      24.43150383       1.05640973       3.10619515       1.55456384
C       17.87511813       1.41321582      20.00406847      -0.46901038      -0.33297571       0.41671325
C        0.09832115      12.69871387      13.37572418      -1.03679085       0.21773842      -1.15205623
C       22.93106582       9.43830261       9.01192632       0.11692343      -2.36589412      -0.42254072
C        1.21162638      17.97658354      24.55948713      -0.98107723       0.41236069      -2.83901942
C       14.56721263      20.68249446      20.34647296      -3.26321816      -1.62597996      -0.17678037
C        3.97031411      19.59091511      18.72491915       1.12927774      -0.19677436      -0.99810052
C        3.25660821      16.92648264       1.83801065      -1.07757235      -0.70647407      -0.18062899
C        8.68313071       2.66357007      16.04841848       6.55082035      -3.66331375      -1.14633718
C        3.01324944      11.65722529       6.57470610      -1.92833188      -1.75358693      -2.39584458
C        4.32242394      19.69698310       7.24360996       0.16417545      -1.52205294       6.11358654
C        0.09044824      14.10585978       0.35076482      -0.89508708      -0.04726933       1.95871007
C        7.68430334       6.45137254      22.03869522       4.63717711      -1.37274534      -1.38513982
C        1.92502590       6.47560311      21.37735603       0.77197611      -1.47735071       0.53305477
C       17.99206640      21.96170413      22.77408963       1.34994814       0.04842305      -0.72548783
C       13.21928089      19.87785960      20.02061360       2.07351545       1.94225836       0.82349828
C       17.19823306      23.16324321      18.14479806       0.07734419      -0.27147752       2.05629027
C        6.95207365      19.34871165       3.13068998       0.33152120       0.79518139       3.74877191
C       19.37380559       8.99065575      12.69475043       1.09949737      -5.75915876      -3.29712719
C       19.72180625      18.39400302      19.28852398       2.90203488      -0.01096973       1.06437331
C       12.71915092      17.70817712      17.45991056      -0.71531689      -0.90602720      -2.23331225
C       16.23192566      15.31473985      25.01022447      -0.43764017      -1.17747447       1.38360757
C       14.58293591      11.39475230      14.44948646       5.80513673       2.33079072       0.38037390
C       21.91613926      15.13495536       8.66968309      -0.57240492      -0.34488297       1.52825183
C        3.29256629       3.43393388       0.07505882       1.10008654       0.70041066      -0.54000738
C        8.15222516       9.08276389      15.15742973      -3.35048342      -1.65776032      -1.80770427
C        7.01562299      13.29462874      22.69447857       0.31676610       0.26651773      -1.46567786
C        2.47462574      12.71138731      16.39080158       0.08485868      -0.24178219       1.06904384
C       24.27381998      18.86908409      14.45145211       2.18011612      -0.49007234       0.78536846
C        7.98024354      14.31658342       8.13092792      -0.98205251       1.56237813       0.09489390
C       19.03110499      13.54198407      15.50342080      -0.24360633       1.26731062       2.25750397
C        3.15247067      15.80347119       5.76982590      -1.57000005      -0.45111479       0.56005102
C        8.69969615      20.00285534      19.20433976      -0.87930995      -2.66857955       1.54681319
C        3.55602100       8.45248791      16.25299261       0.77708089       1.84380324       5.26778322
C       11.93226891       1.94670526       5.05018895      -0.82479263       1.23922509       0.64959382
C        3.94544817      14.24732552      19.14611607      -5.99110705      -0.26298776      -2.67003447
C        2.52657809      15.74745472      25.32367771      -1.29942539       1.60409522      -4.92229682
C       11.34735884       8.92287487      14.46122869       1.20017570       1.86635619       0.43529223
C        6.17233524      25.18610602       3.06719101       0.70925742       0.79992634       0.13293384
C       14.23721469       6.26007605      14.23188195      -1.61608255      -0.65244285       0.58309153
C       12.07475537       0.19424465       2.77071897       6.97776191       1.21978369      -0.04247393
C       17.74819850      11.29817931       0.91253377      -0.13851225      -1.71291351      -0.00243777
C        3.65036736       8.08927361      12.53437566      -0.38853015      -0.55395058       0.01706004
C       23.84297233      21.11831950       7.23920635       2.24977636      -0.24402165       0.51607954
C       10.71788013      25.24007785      22.10247968      -2.93598804      -7.39710677       5.47536808
C        1.57611557      22.67275122       4.20616611      -0.21361262       1.74506229      -0.31060898
C       18.25599424      11.72052052      22.25062276       1.73850697       2.91693772       1.94879943
C        9.42887457      14.67281032      12.32858934       0.94793195       0.48443313      -2.61193478
C       24.42298061       8.28482794       5.86013227       1.26591545       0.58246014       0.17728052
C        4.84046309      22.88972059      22.56694250       1.97950080      -0.17798682      -2.82021624
C        1.78991589      22.88267014      19.25379101      -1.65498218       2.33205500       4.79294005
C        9.01951105      18.84674673      18.49780722      -3.96586437      -0.05943432       0.56421137
C       19.45269756       1.87567393      24.44848408      -1.07956964       2.34408154       1.54194738
C       11.15841794       3.96526172      23.69743022       2.87791995       2.57882248       1.37403151
C       24.10846134      18.75130065       7.70914025       2.35283887       0.33188981       0.16859892
C       10.72142800       6.54428209      16.48431594       0.80543162       4.33478469      -0.69336262
C       13.80990294      22.47522978      23.14628765       1.00264429       1.16642574      -2.72036332
C       11.01521942      15.13429627      13.10454181      -2.92570654      -5.81160575       2.87387314
C        5.66819778       7.35578326       0.10110490      -1.47560140       0.30314944      -1.08206457
C        9.97940143       0.07469614      11.36039694      -2.04936779      -1.73141903       0.37121147
C       22.22726939       2.49104355       8.91600852       1.63237950       3.53441483      -0.38956124
C       11.49892005      25.39755261      17.96614438       0.71316962       1.96164525      -0.73166614
C        3.55665993      14.28505583      22.01397322       2.31837285       3.42644602       1.75518905
C       15.16678849      11.23964943      18.62948732      -1.11549711       0.73134351       0.84442750
C       25.19474718       5.80206598      20.30547293       0.48271303      -0.33371542      -3.35911089
C       12.58410787      19.69229224      15.45704910       0.77607211      -1.33533478       1.60426471
C       15.21857959      12.38573567      22.49769795      -1.18306047       0.32726240      -0.60043943
C        0.85961233       9.27954101      12.07977250      -0.23431414       0.03617378       2.19301304
C        2.98720769       2.36156204       0.91570462      -2.51002499      -1.25290000       0.60794586
C       10.58156649       5.02552243       6.93400649      -1.55896157      -1.69631347      -0.64905528
C        6.99068981       3.54948397      23.11189265       0.44795188       0.61940309       1.10020459
C       15.09168665       7.73059042       4.01060943      -4.37008715       0.22790172       2.33673149
C        4.55401586       7.67495911       9.54457923      -1.04401374      -0.25790433       0.67825208
C        2.23872192      14.80604230      12.35373370      -3.90067039       5.72038156       3.35031920
C        2.76604362      13.81283557      11.85151048       3.63465682      -5.18432709      -2.79244050
C        0.56676468       8.35662363      18.63620668      -0.84517369       1.51806492      -0.33627003
C       10.23863507       0.60499670      17.67100210       0.29289918      -1.43703896       1.88243711
C       14.17964234       6.97893440       9.85128854      -1.66063792       3.28858728      -4.09094006
C       19.50838173       8.18377501      16.55330711       3.96938469      -3.36229646       0.01181044
C        0.91559461       7.49573070      14.50682208       1.46717298       4.44441885      -2.22292745
C       15.62760997      23.95874793      10.08875957       1.28119603      -1.13707596       0.49972717
C        0.64784697      16.03680652      18.65008934       4.22765139      -2.40069848      -2.46758372
C       21.49538857      17.84378110       9.60838962       2.60665858       0.83142209       1.21959943
C        7.19165617      22.88670432      18.80764541      -0.95388090      -0.83554794      -3.35147732
C       16.53736416       7.34495674      13.71213010      -0.34034610      -0.63495082      -0.06929148
C        3.66838427      23.80546840      13.31274762      -0.77548496       1.16635579      -0.83494955
C       11.20728485       7.70514537       6.96502991       1.51869871       0.34452810      -3.43486640
C       25.34926202      14.27585572      22.99715479       2.05588274      -4.30057204      -1.77999681
C        0.00631557       9.69478171      18.51405965       1.21362987      -0.77887641       0.18293865
C       23.92230121      16.67263071      24.34510914      -2.27016383      -0.63169007       1.17664138
C        5.07759734      14.21967095       9.72989831      -0.11327547       1.69575906      -1.07795918
C        9.43211321       3.41727318       6.55420747       0.78229767       1.49219172       3.55303639
C       19.15443800      16.67796081      24.59664812      -0.68730640      -1.81576508       0.18659300
C       18.18845204      14.31858514       3.23287813       1.10372385       4.47230291       0.96530861
C       19.96369455       1.38533497       9.79305660       0.06060410      -4.77492884       1.51745927
C       24.87981152      15.26480755      18.60952734       0.56933463      -0.58676042      -3.48666012
C        4.04247204      22.45821212      16.63273365      -2.85019416      -5.36027355       0.10747673
C        2.40222198      11.90907682       0.94727485      -0.97392875       0.70179767       0.39309601
C       17.35668474      18.17390354      17.49045608      -1.98978376      -1.76627569       1.03772992
C       11.01893096      10.77196111      23.92763727      -1.59336901      -1.71183366      -0.80324287
C        5.48437395       9.32595644       2.55212584       1.57076801       1.74583369       1.02493799
C       18.54553614      22.76739395       6.90892292      -0.26957971      -0.03744042       0.71910281
C       22.21115208      19.86717440      23.58370531       1.91508025      -2.99146202      -2.72367048
C        3.95459890      16.90973580      19.75561806       1.28352831      -0.98883192       1.05070413
C       11.73737802      24.19689561       5.83199062       0.00911543      -2.07594457       1.03743353
C       10.98241862      16.03997864      14.22088657       0.95312920       2.16980731       0.20148464
C        0.01206967      21.46010508      13.13847633       0.16341564      -1.87367770       0.83993677
C       23.44248067      16.50342895      15.92976354      -2.25817982      -3.11489201      -3.41032851
C       11.69002321      13.02772506      16.26192441      -0.59997219      -2.24612325      -0.45451364
C       15.57075765       1.26865391      15.86711371      -0.05059630       1.99261621      -1.68657801
C       25.23898135       8.57523599      22.38894910       0.09585515       0.94326636       1.11711049
C       13.77324713      24.17752059      13.80375535       4.10862673      -5.02825618      -5.91893181
C       10.75363439      23.10380759      18.77355345      -0.28107488      -1.66935235      -0.21192288
C       11.62488370      11.01949770       6.17912987      -0.98816440      -0.46645781       2.24342930
C       14.51236957       3.38781565      19.36075094      -0.00339344      -0.45530231      -2.10314226
C        9.54317687       8.54885737       2.91714956      -0.03112853       1.12630719       0.69438368
C       10.98348300       7.30939946      11.51858544       0.14717827       0.22205127       0.62226918
C        4.63947205       0.64254183      21.84807152       0.01981815       0.46997556       0.37242472
C        4.37758201       8.39698794      20.21251550       0.39595736       1.33117932      -0.43979478
C       12.34721556       9.98362066      20.93453399       1.31949721      -0.57983840      -1.23126608
C       15.88658682      17.67201172      18.27123049       8.55172038       4.37160566      -0.89661995
C       19.00792204      19.24060499      24.33952740      -0.82999259       1.73536834      -2.90842704
C       16.55705254      24.44972969       9.28166182       0.32570088      -0.57290021      -0.09709303
C       15.43183774       3.86345326       9.02654275      -1.58352481      -1.78434914      -1.35222861
C       13.14924642       7.21732086      24.27095968      -0.78601593       0.18682244       1.38467737
C       14.28125698      16.51623379      12.36984158       0.30852735      -0.09017402       2.00643325
C       17.56290023      18.13408773      20.63604257      -0.43652761       2.62496881       1.90053785
C       21.64449125      12.92439203      24.87181158       1.46917626       0.67348492      -1.91130137
C       22.17633707       0.02962180      23.70168097       0.23506540       1.41975179      -1.26996696
C       13.34042188      12.96355752      23.97122719      -1.62721944       4.50006098       4.34744638
C        4.55459726      23.53032574      16.11491668       3.14504196       4.76553053      -2.89464973
C       16.00310534      19.95801080       7.58851843       0.14897264       0.51191048      -0.52834567
C       18.96929432      15.11351351      18.17150658      -0.12363362       0.07892862       0.48322642
C       10.92606256      10.23318290       1.64545999       8.28011262       4.48824745      10.09061074
C        6.01503261       9.61532742      23.50198601       0.48546876      -1.25997001      -1.52827355
C       20.28638847      16.84182428      14.90305043      -0.15928482      -1.53272474       0.84452933
C        0.84292933      13.20388897      22.48412814      -2.94470382       1.07028531       1.93221221
C        2.41965995       2.96413034       7.91057446      -0.84687549       1.09231690       1.24310660
C        1.21623190      20.31193475       0.63770707      -1.46410102      -1.51478031       6.85726982
C        4.07124399      16.59355243      11.09546333       0.76886357       0.56262323      -0.29099175
C        6.22847904      22.27674287      12.13053641      -0.36073104       2.14053696       0.25408354
C        6.80291986      22.99552956       7.11470214       1.27545583      -1.43167591      -0.04907554
C       10.38187657      20.23258366       8.30857516       0.53938201      -1.74785882      -2.18513811
C       24.92584390       5.93954815       3.34324869       0.46521810      -0.18602656       2.04056329
C       23.84450701      22.33538557      21.79040045      -1.17276059       0.28574648      -1.63274220
C       21.93848240      22.29412971      16.07684249      -1.33194518      -1.23193882      -1.47172965
C        6.18917625       9.97881084      18.37314092      -0.09695150       0.46107718      -0.57983629
C       16.29001732       1.04565312      14.64180950       0.81954515       1.23377691       0.46303904
C       15.11306147       0.79016182      18.36703345      -0.48460047      -2.99322075       2.86115992
C       19.11651212      11.75696727      12.72825568       0.67540880       3.74784929      -1.88279873
C       14.13084404      10.19597819       7.92599049      -5.93142372      -2.55874524      -0.63733429
C       19.75396098       6.72853862       2.90243185       2.90652324      -3.41617486       2.44508522
C       13.33509021      22.54723769       8.73316042      -1.60483107       0.94728082      -2.56622916
C       18.12375470       5.93887404      10.84579682      -0.80942535      -0.12404120       0.85402387
C       17.08058837      22.21486261      13.23179414       3.71440135       0.99234548       2.28520340
C        2.15446089      10.82921864      21.41158760       2.50892136       1.03884878      -0.99278605
C       14.20357739      24.92065086       7.14664442       1.21054316       1.42703274      -0.03916943
C       11.88481914      14.98054163      21.54505578       0.20653901      -0.96114139      -0.75957882
C       14.10210823       3.81931531      11.40648984      -0.78935067       0.24329020       0.41712526
C        4.45133492      20.29084629       2.53670971      -1.17364109      -6.60946434      -2.92742231
C       18.86044157       3.54340183       4.41955349       2.50331753      -0.62080908       3.02001923
C       21.09209945      20.32414164       7.47108330      -2.12594509       2.60665751      -5.08750644
C       10.59245030      19.37937459      25.40972343      -1.94474160       2.31983485       5.85394871
C       25.12693343      11.95261477       7.98576838       6.55484754      -2.52418944       0.43791580
C       18.22418303      22.73318282       8.31873615       0.66681183      -1.08390361      -0.98691207
C        7.93425090       3.77956691      10.56383431       0.29369640      -0.16038692       0.41548023
C        7.21571189      23.00137590       8.50779888      -0.08990355      -0.42626213      -0.11054546
C        8.76745348      24.86294905      10.73968325       1.31774843      -0.21499123       1.56485448
C       17.68409276      19.75839217      20.68269406      -1.75986549      -5.15532964       1.85804147
C       14.58987336      25.32682605      19.92245213      -4.29456079       4.35354775      -0.10922167
C       16.66149892       3.36380271      20.54003154       0.42563978       0.66042214       1.38111007
C        0.31460008      18.51340470      21.09623003       1.50730264       0.06133032       0.64999408
C        0.22861653       1.30772456      13.15070200       0.87186521      -1.20632234       1.20640257
C       10.79498827      23.72953111       1.11848598       0.19573845       0.64156399      -2.84868133
C       20.56312897       3.15868462      19.21813292       4.01608729      -0.40784317      -5.99500287
C       20.84082721      11.62123002       1.77220129      -0.50498292      -1.50502807      -0.45379748
C       15.76167778       0.61401235      11.11246772      -0.24019045       0.77436595      -0.38769674
C       12.93685660      17.94738245       2.79407184      -1.53252482      -0.65160746      -0.16628605
C       15.76816729      12.26108535       8.16446289       1.21300501       2.24930048      -0.93309948
C        7.59134658       0.48352273      14.97284919       0.78125152      -1.42726590      -0.77475816
C       21.60077176       7.07350759       6.85406344      -2.60528540       3.36901402       4.65428828
C       10.83376726       0.96133117      21.68440169       2.92801523       6.84832919      -3.77063841
C       13.71713341      16.51772393       8.42549086       2.56708011      -0.37163842      -1.68021971
C       10.10127525       5.86657183      19.84628207       1.48164907       0.89668299      -3.28448346
C       10.21337992      13.60240908      24.45842439       0.05025373      -1.36565554       2.06431666
C       16.51493589      22.36557169      24.83291862      -4.31221890       0.63183850       0.96959013
C        7.07505217      10.14461057      22.76475504       0.42205709      -1.48263973      -0.87862322
C       25.27250987      24.35009604      10.99846136      -2.42710888       0.20497724      -2.59848446
C       13.66144489      16.36511643      11.16024328      -4.02277410       2.62050867       2.25425375
C       22.11037674      13.76379273      20.36494148       1.38689780       1.36470723       0.56954814
C       11.72576605       3.64151370      14.65021542      -0.08476406       1.50264096       1.04036518
C        8.24915518      13.84118845       2.37084258      -0.18361025       0.58096814       1.30464715
C        9.35302458       6.39025990      21.91130670      -4.96366602       2.65526823       2.90502107
C        1.16567495       0.14395490      24.38898383      -0.28115702       1.49344017       1.03025633
C       22.60814788       6.77368621      20.43273740      -0.38043409       0.70304510      -0.40449882
C        8.76378733      12.53070131       4.69319293      -0.11216319      -1.26281160      -1.55169427
C       11.83789157      10.51376479      19.65640336       2.11457354      -0.90903795      -1.27743927
C       16.17051747      12.13701958      17.86489103       0.60941762      -0.85782355       1.66979167
C        2.97413911       6.07069146      18.11191030       5.75189906      -1.92757848       0.11920580
C       13.45764172       6.83188057      22.87005241      -0.44883098       1.66420400      -0.87950990
C        5.80822716      14.49308078      25.03840273      -2.19863969      -1.17660052      -1.06964791
C       24.71998055       7.06418697       2.19235578       2.02739733      -1.34189437       1.50272617
C        9.54411484       9.21394141       7.88087063      -1.44999219       1.21411747      -0.10521228
C       12.63652985      22.05842014       3.38562609       0.07350469       0.00222605      -1.09021086
C       24.60998101      11.11289093      24.32536743      -0.89915690      -0.75641152       2.13874269
C        5.58651313      21.55492192      25.10591110      -0.17667046       0.92167260      -0.88833585
C        8.09475607      20.49295726      16.02726904       0.87170505       1.56664729      -0.14637832
C       18.58483891       0.07436787      23.82459371      -2.69364572       0.20999864       0.59896046
C        3.83713405       5.25378210      12.08136963      -0.78256963      -0.82477218      -0.33124591
C       20.50706991       6.19864062       4.38500094       1.08424403       1.91127506       3.56973216
C        8.03317107       8.86254457      19.43297695       2.34305459       1.03429601      -2.32298750
C        1.05815588       2.58524064       8.32670495       1.63098225       0.98799726       0.18211362
C       16.09847842       3.21819181      15.30523624      -1.33118203       2.85706680      -3.04045972
C       19.02992497       5.63563448      21.43274861      -0.24368704      -1.52891147      -0.77854460
C       17.46862384      17.99212958       9.09218385      -0.60980847      -0.64251357      -1.80468018
C       22.93237787      17.53458243      20.77738065       0.98614565       0.82974221      -0.05078672
C       10.46433881      16.73447692       6.45336561       3.44716325      -0.52857289      -1.53897262
C       24.59507559       2.73329216      11.44185983      -1.19059899      -0.68715031      -5.49127090
C       24.89258078       0.72723263       4.75541933      -0.36879016       1.37702101       0.52890750
C       19.33261396       2.53363204       0.26285629      -0.96375248      -1.05966747       0.99430892
C       20.87490296      23.81113307      10.26553891      -0.25877106       0.52092202      -1.27943620
C       21.63114448       5.37748858      11.47792536      -2.69168839      -2.43540418       1.51585430
C        3.98334126      21.45668441       2.82441132      -1.61415800       4.91031590       2.46823554
Hf      13.77695494      24.22108545      18.31612683      -5.85676193       2.16003060       0.45700254
Hf       6.26867226      18.54353818       6.14709026      -0.10865128      -2.49082613       1.01527920
Hf      15.39056533      10.42234072      16.66203514       0.39519385       0.04561985      -2.32224360
Hf       4.62697112      12.81983818      17.92802989       1.40895942      -3.88687274      -0.87816073
Hf       5.30452895      14.50678312      12.22812411       0.03619146       2.68401271      -0.17206538
Hf       8.91325791      24.49971091      13.76800499      -0.35891284       1.12983960      -0.19557071
Hf      14.01023731      22.82532715       6.27513948      -2.19213468      -0.68220076       0.59900196
Hf       0.34434265      19.08258423      11.61255860       0.47586555       0.40820807       0.07942271
Hf       6.56021594       6.64679567       9.09938251       0.19432019       0.96122320       1.19971421
Hf       9.41472576      12.08389345       2.56245646       1.76644513      -2.20609915       1.71457273
Hf      16.17157394       9.66386487       4.08812655       0.59347469       3.54687300      -1.81695122
Hf       7.25267682       7.43992657       1.33797846       2.65445533      -1.03864777      -0.82147241
Hf      21.21653004      24.60792118      16.04737485       5.72095954      -2.89544499      -2.76304930
Hf      11.56758903      24.06064151       8.07119776       2.63548756       2.74078214      -0.98750091
Hf       4.51551007       3.85298888      23.68417157       2.37595996      -1.75508475      -1.26792404
Hf      23.70923707       0.37624155      18.18207349       0.06527019      -1.79306547      -0.20443749
Hf      16.95504357      18.22214262       6.63429275       1.35880819      -2.80725121       0.83611053
Hf      15.23110395       7.38205646      21.49453766       0.11467467       0.07664189      -0.09760791
Hf      12.98017397       5.18964037      24.30292378      -0.18381745      -2.56747742       0.13231736
Hf      13.26554810       2.29276192       9.82955114       1.72844422      -0.69368622       1.69142732
Hf      24.91674423      14.43203551      11.39412182      -0.48787566       1.69802066       0.14733368
Hf       1.05907051      22.02204822      21.66179432       2.04796678      -2.53236461       2.44807686
Hf       1.98137150      15.91994388       3.78144443       3.58660299      -0.36588000       1.29992943
Hf      11.81477638      21.35330190       9.49103241       0.60295084      -1.40665269       2.87756634
Hf       7.87545078       2.51273568       3.38911350      -0.22225480       0.55609503      -1.84078616
Hf      11.16784682      21.54359832       6.54309574       1.75396714      -0.27692505      -3.59328938
Hf       0.20763454      23.10343283      17.58944921      -2.80304390       2.76922533       1.84336072
Hf      16.78994814      12.94415230      11.13655230       2.11684511      -0.55089982      -3.09205920
Hf      13.39917598      12.22928792      20.37910758       0.48276435      -0.90220070       1.01173645
Hf      14.31385783      19.61296614       3.42855865       1.75307366      -1.52524436      -3.37770499
Hf      14.80036874      13.78725107       4.18029487      -0.69538356      -0.47451136       0.81865466
Hf       6.27193983       9.89883095       0.38198470      -0.77896507       0.95338846      -0.37129712
Hf      23.04160832       3.51187474       4.84949362       3.62340420      -1.49199289      -3.10560179
Hf       2.26002883       3.96797941      13.61260343       1.41190356      -0.37710869      -0.34456876
Hf       7.74859022       2.13396701       6.34228706      -1.53259908      -0.87773407       1.73244002
Hf       9.35582036       4.29257000       8.90147124      -1.09331349       1.38929492      -3.15420377
Hf      24.70046566       1.74734814       2.12853112       2.61258242      -1.92421056       2.02684903
Hf      14.47859663      13.07432296      12.33766864      -1.77399504       0.90828126       2.02729672
Hf      16.55972838      24.16732668       7.08959957      -0.15998855       1.28198850       0.05423486
Hf      23.40810261       3.53929890      16.80452535       0.77274358       1.23759836      -1.49537188
Hf      14.10284886      22.14759512      15.70531350       0.15142523      -0.44262305      -2.01810801
Hf      19.39150661      23.33178300       4.75583175       1.81083983      -2.44679409       0.15965309
Hf       5.30147961      10.78497760       5.74714624      -2.44548827       1.93011338      -0.84786395
Hf      23.19429720       6.28215657       6.02349482       6.71652620      -2.03238311      -1.38557005
Hf      19.40998050       5.02101170       6.34261363       0.84361942       1.13813881      -0.68010849
Hf       9.78030571       9.95311366      15.81822017       2.45053484       4.04320449       2.35287121
Hf       3.12803110       3.45642751      10.25204135      -1.82290174      -3.28467624       0.86166477
Hf      10.31755703      10.95089327      21.06415539      -0.67452192      -0.60881537       2.47975823
Hf      17.10822888      13.69116756      22.95680216       0.73576987      -0.05616498      -2.28206050
Hf      19.46501333      16.99657952      22.49322019       0.26073492      -2.60967368      -1.95217121
Hf      16.53893823       1.77477393       8.73221711      -2.32833987      -1.37535527       0.74983719
Hf      12.08827511       2.35509680       2.58972957      -0.79118954       0.19494641       1.11727165
Hf      13.85391206      12.05498890       9.21945887      -0.21531838       0.61137092       1.37977108
Hf       0.40075877      16.66067372       0.55065238      -0.02214012      -1.23764688      -0.19984882
Hf      12.38178804      15.60293566       4.47531330       1.71636057      -0.09105299      -1.60858721
Hf      19.29714880      24.93430388      22.02488556       0.02666783       0.36307687      -0.77317487
Hf      21.44101276       7.98468213      13.46480608      -0.24973127       1.87247710       0.31720132
Hf       3.11195597       0.92567383       7.00080555       0.34622902       4.41596758       1.24493161
Hf       9.18675397      11.26365448       8.34275084       1.77527994       1.60523863       1.78466994
Hf       7.67901620      23.48572734       4.13875257      -2.17317867       1.47803402       0.96070898
Hf      10.30624277       1.21497278      15.66657672      -1.27680346       1.62473282      -0.66282696
Hf      10.39728843       3.67777558       4.80675631       1.38296705       1.88088506      -0.77780128
Hf      10.60783761       8.21571675      18.27039795      -0.31992023      -0.49746454       0.56415112
Hf       1.76947984      16.44366158      10.52046841       2.09633559       0.45481272       0.89015216
Hf       3.50846619       7.35106798      14.72267198       0.37483644      -7.58850059      -4.50142467
Hf      16.03404653      10.68503650      23.70290529       0.37570561      -0.69011515       1.29828292
Hf      22.07240071       2.82394526      11.10078986       1.30687696       1.68803012       1.80589879
Hf      18.41869767      21.01138244      19.31339374       0.22941494       0.56563699      -2.54903315
Hf      16.98768770       5.59559186      19.12509724       0.61267954      -0.03505757       2.97775960
Hf       8.63729422      17.91373361      24.78811975      -0.97735193      -0.51603895      -0.03815964
Hf       6.50520226      24.93838430      22.88852094      -1.53172411      -1.66151103      -5.55646288
Hf      21.16688680       2.25832465      23.25952974       1.76708282      -0.02392784      -0.86462545
Hf      22.61788583      20.20545837       2.48797605      -0.70521283      -0.38718018      -1.46588629
Hf      16.57299045      19.66533905      15.94686888       0.11845082      -1.36125052       0.72561261
Hf      19.27178781       0.83257611      11.62566598      -0.03485115      -0.73853278       0.17751268
Hf       4.48655560      19.68664228      16.18704213       0.29642320      -0.94578117       1.09727025
Hf       9.17742144       6.70532271       4.15616810       1.49108350      -0.40164445      -2.21460247
Hf      14.44345585      18.83829057      11.95179175      -2.22536480      -2.68559086      -1.59863126
Hf      20.78312096      18.46022069      16.57927202      -1.86024952      -2.24006087      -1.68050236
Hf       6.70975333      10.71279299      16.20511446       0.29797175      -0.74157684      -0.33771792
Hf      18.10868685      20.26676617       8.29777409       1.05823132       1.25105697       2.50646067
Hf      10.32589887      15.44941562      18.37742449       1.53729993       0.15401325      -0.61158079
Hf      15.17881203      21.75234286       8.91123836       2.62599552      -2.17862159      -0.20027307
Hf       7.30293066      20.24893303      25.43400404       0.27703862       3.55052543      -0.89224660
Hf       8.15922696      24.93708433      17.79149547      -0.56738287       0.51936778       0.81132799
Hf       9.72103465      17.49945899      15.56895377       0.40116040      -0.43254812      -0.02883331
Hf      12.32044767      14.29998861       7.09416946       3.16596144      -2.41736136       1.22188553
Hf       6.08447764       4.85766815      12.26783529      -0.14584148      -0.50342277      -0.55049644
Hf      12.12190910       1.99542464      19.55154533      -1.49088025       1.10546935      -0.33765413
Hf       5.35454442       9.87836802       9.92268007       1.54854578      -1.77480567       0.13693041
Hf      19.42270046      13.58176837      10.63456847       2.63961834      -0.58569047       0.17595647
Hf       4.73080470      12.91389456      15.07463611      -1.41806953       2.85404450       0.17231882
Hf      11.63317317      22.10408747      20.52588187       0.47867163      -0.29725409       1.00903130
Hf      17.32917926      20.26131229      25.04452759       0.37216974      -0.07576403       1.13620542
Hf       1.47074814      23.70800709       8.81138287       1.49644870       1.91217171       0.23981571
Hf      20.50450426       1.48181851      17.13276546      -4.60048670      -1.76143247       7.07659137
Hf       4.51628055      12.45491001       1.43461941      -1.88478729       0.44321811      -0.92411268
Hf       1.22440825       2.45252840      24.34377276       0.41140382       0.21169996       2.05764866
Hf      13.64366114       1.51273005      17.04723519       0.92468036       1.34203317      -0.70055097
Hf       3.10900821      18.23067828      25.27343456       0.76500127      -1.22127980       1.69904456
Nb       9.39805595      22.95110927       9.81433963      -1.45131600       0.14386684       2.12366140
Nb      24.59145129      14.55438272      20.37344700       0.10273814      -1.15824553       2.39960054
Nb      12.07663355      12.64557608       0.20917614      -0.47419478      -0.05061783       0.19788492
Nb       2.62361767      21.71447781      18.07046498       1.76585028      -5.99447140      -2.68855060
Nb       4.41351507      14.04211093       5.51215060      -1.43711796       0.62680960      -1.65045038
Nb      18.16805850      17.34877843       0.81644393      -3.39825416       0.18615638       2.55968165
Nb      22.89144350       0.81546362       0.18208286       1.72946030      -4.52716094      -4.01529777
Nb      11.56096842      13.25209141      22.97084159      -1.35724489      -0.70107233      -1.47783279
Nb      19.38829579      10.23014090      13.97404696      -1.65251657       3.44580346       6.97333896
Nb       3.83389946      10.63336448      19.72617130      -0.64006764      -2.20012420       1.94455051
Nb       6.88257086       2.02363642      20.69717335      -4.33155189       0.90375295       2.80546719
Nb       2.07399094      12.32939130       4.38070169       0.73222634       1.33121945       0.56115073
Nb      13.94264995      19.92417116      22.38686801      -2.08453953       0.08478621      -1.56212018
Nb       3.61284972      23.73449788      11.10214869      -0.18543567      -1.01019737       0.29949021
Nb       9.65204750      21.40051983       3.98846736       0.62598431      -0.48554531      -0.43390518
Nb      22.34025436      15.89579561       0.28208518      -0.39474595       1.34080225      -0.39926468
Nb      24.02106253       8.13770649      10.56763898      -1.06742513       2.36617368       2.75872350
Nb      18.36591369      10.14565831      11.41800625      -2.57998563       2.59171003      -1.97471154
Nb      22.00478120       4.44396569       8.36070012       0.68436284       0.73561150       0.28556105
Nb      17.07021179      18.84517734      10.83622869       3.60763323      -1.28144959       2.95118783
Nb       7.28453475      14.91851093      14.62728792       1.26584649      -2.36356294       1.11635524
Nb      16.31796812      12.70229623      25.39232656      -0.94836527       1.50596088       3.37268448
Nb      21.45902526       5.12809486      19.37013944      -2.10670638      -1.31176487       2.61951065
Nb       0.54082464      10.82505503      22.95813262      -0.26206198       0.83802623       1.22698471
Nb      25.37476331       9.11779228       3.28285258      -3.97981143      -0.68385760      -1.78316903
Nb       8.71108918      21.66484424      18.20164408       2.30243695       2.05568421      -1.51402891
Nb       0.49248324      11.13944310       0.88254627       0.07290924       1.33181670      -0.81455845
Nb      17.56197608       6.74367110      15.41042620       2.76570204      -0.80871871       0.65981160
Nb      18.30256743       9.56615427       8.68951046      -0.77531108       1.52245843      -0.73728615
Nb      10.35782231      23.60573514      16.46502187      -0.01757079       0.29661009       1.46804184
Nb      21.90339164      12.19996323      19.11522051       0.47587267      -3.25973248      -0.64251691
Nb      15.33634381      16.59537252      14.18258297       1.87198615      -1.28271407      -0.53575480
Nb      11.72759951       6.64892690       8.56020708      -1.43182784      -1.72659582       0.91256678
Nb      17.31675181      16.11384825      12.11486306       1.40820213       1.70403516       0.91425246
Nb       0.72543406      21.34126623       6.49244250      -2.02734089      -2.06779154      -0.30913508
Nb       4.42121136       7.76815372      17.99410808       0.31389275      -0.74593804       2.39723134
Nb      23.71122526       8.61055469      19.61195254       2.04483348       2.03245652       0.16189842
Nb       7.54569652       9.17468292       3.67936115       0.49253058       0.05312002       2.22717577
Nb      20.36452713       1.47707313      14.26682195       3.03290389      -0.86923265       0.34503764
Nb      20.34372825      13.98420063      17.22475302       2.20053099      -0.05314712      -1.19088278
Nb      24.39657909       1.22931115      22.59461193      -2.04378223       1.18795890      -2.08648413
Nb      10.37365533      17.51926876      21.71089489       1.97760478      -3.61314569       0.11719269
Nb       7.70132615       6.92531145      18.44508186       1.41154534       0.87878206       2.36248301
Nb      11.85182506      20.03907286       1.72053282      -1.35779071      -1.67918210       0.11506051
Nb      18.09843013       7.32141365      22.52111052       0.98662585      -0.21477194      -1.84317790
Nb      12.71416349      25.31122115      21.22538282       2.66557190      -2.07531166       1.82718414
Nb      22.48742101       9.87321986      22.79121490       0.24495423       4.12921393       3.16840315
Nb       8.35480219      16.97856185      19.74036035       0.78264051      -0.23207849      -3.61891681
Nb       6.32069544      21.14350332       5.69505871      -1.70574003       3.45500554      -0.22062659
Nb       2.32604016      13.28811262      21.02092030      -0.42112511      -3.19865751      -0.44348967
Nb      13.00823464      14.32127007      14.45642429      -2.07383338       0.78963506       0.12943473
Nb       5.00479544      13.10556821      23.00521683      -0.55653650       0.64779389       1.18738317
Nb      14.34675538      19.06066898       6.75394472      -2.86786629       2.76170886      -1.91825336
Nb       1.78165897      14.28367844      15.15425556       0.37892318       0.14276883      -1.88234296
Nb       9.09956316       1.89349298      22.41635577       2.52109579      -1.06273040       0.80245218
Nb      25.09783717      14.03857728       2.38524269      -1.72546053       1.07572813      -1.86872649
Nb      12.53593097      11.01729638      17.28355643      -0.74858227       0.62971959       3.92610306
Nb      22.29604987      17.38926458      22.74072337       0.05276692       0.05702832       0.95216320
Nb       2.84935124       1.11602912      12.70388603      -0.79864147       1.19488746      -0.90832478
Nb       3.73660038       4.55565092       6.30023383      -0.16808724       0.84411860     -10.36231178
Nb      17.07369554      20.87071431       5.87057821      -0.99699985       2.96249193      -1.24177054
Nb      11.65126145      24.46565389      12.54657205       0.22850160      -0.77015358      -1.07025489
Nb      20.93387523      22.19047384      21.96476482      -0.50305193       0.36965346       0.26271468
Nb      14.52238890       2.79623886      24.06641801       1.01751339       1.50957203       1.64573026
Nb       5.78178366      20.38813623      19.55369517      -0.03164783       1.43382628      -1.49048162
Nb      17.94838892      16.20490146       4.96155607       1.69654825      -1.43082213      -2.25594765
Nb      19.58735731       9.61879937       2.02648202       0.68353182       0.91256210       0.35581936
Nb      22.32340520       6.06282208      15.48416453      -0.30543470       0.36551955       1.20824437
Nb       3.13993291      18.34764927       5.74603799      -3.83621603      -3.51902784      -0.33991629
Nb      16.90831401       4.23323402      10.38362371       0.51902384      -0.68152875       5.03861719
Nb       5.18762955      24.20446437       7.55992415       0.12515450       1.98571283       0.57968855
Nb      11.63070956      16.92720953       8.96641846       0.66939770      -1.15701351       0.46340042
Nb      20.90681045       8.79616539       9.01689776       1.59299406      -0.08046584       0.90640479
Nb      19.49465365       4.25339171      12.40195631      -0.35247178       0.54047653      -0.57297193
Nb       5.61884795       3.06772827       1.55020868      -1.11849505       1.32555522      -1.11585750
Nb      20.55302888       3.83408646      16.25909497      -1.03661677       3.26062524      -0.56650206
Nb      19.25592259      19.88338523      21.99720375      -0.02766073       0.44123706       1.44151139
Nb      13.72382637       4.73469022      20.55061627      -0.14191353       1.02642745       1.44584328
Nb       3.91260907       5.63498544      21.31293621      -0.10742295       2.03866547      -1.07666335
Nb       8.57520854      11.31428986      18.90723280       2.15585163       3.11874735       0.39005566
Nb      23.22138644       5.82272132      12.49446594       2.22482102       1.40625328       1.04538885
Nb      15.07543737      17.07389959       0.85979819       0.95404220       1.75944310       1.99527359
Nb      17.38461972       1.59822912      22.67159733      -1.24689847       1.35529518      -2.33664984
Nb       8.34424555       4.76661331      20.48209666      -3.11185902       1.28201121       0.61873065
Nb      15.64721232      21.07007540      12.58747797      -0.83232141      -2.93722513       0.91972376
Nb      10.14284595       9.83244679       0.34138881      -6.57016282      -3.13320649      -6.66397989
Nb      16.05725526      14.73204804       1.83805523      -0.70749816       0.59810868      -1.51712883
Nb      19.14692680      13.18250362      19.47577954      -1.12866998       0.99253568       1.87616372
Nb      20.08549760      13.86993140       4.23438485      -2.17721865      -0.83621836       0.74369758
Nb      19.62269663      10.44627490      22.99224995       0.03913628      -2.97672543      -0.32778415
Nb       7.60039482      18.96130474      21.55367440       3.91644692       6.88436928       0.87095967
Nb      11.50676428      16.57106614      12.04742584       3.62536091       3.24564642      -3.16170271
Nb      16.95401756       1.79067994       3.49580213      -1.84493098      -1.31335901       2.58900762
Nb       1.29236844       4.58353609      20.86306878      -0.23078942       0.02235395      -1.23040092
Nb       1.83392430      13.89288972      18.42022372       0.25612255       2.04053892      -1.94529718
Nb      22.49137585       5.88958823      24.69425899       1.78713202      -0.54474482       0.16593646
Nb      19.41167133       2.61672143       2.69120678      -2.78019655      -3.02198231      -2.15559092
Nb      14.58044094       2.69180118       6.12770103      -1.94624028      -1.97495937      -0.25450045
Nb      21.43494847      20.04227084       9.23251190       0.43430427      -0.92719980       3.29135934
Nb       7.14742201      11.97852062      20.77716571      -2.17659378       0.07105722       3.12273186
Ta      16.46294475       6.07001389       1.61836444      -1.15915990      -0.61430126      -2.78018963
Ta       7.22924001      23.16194902      15.84990320      -1.02948323      -0.66792718      -0.26156759
Ta       4.51027009      17.78953445       3.03487532       0.76312661       0.67961267       1.89579177
Ta       7.60720947      15.90548986       9.59268894      -0.55482316       0.41649833      -2.25377417
Ta      22.28195633      10.17152599       0.80114441       0.59084243       0.34889628       2.90898654
Ta      21.39952244      20.82515531      24.95032712      -5.18435568       0.79475683       1.71402362
Ta       4.42583272      22.30669653      14.25524309       4.07681349      -1.87566245      -0.76080606
Ta       6.56847248       9.05244506      20.74802050      -3.04960233       0.92544255       0.08160979
Ta      22.28726152      21.59131894       5.98999056       0.07814747       0.82083711       0.50793914
Ta       4.55264874       0.77629258       9.64794931       1.15404016       0.09422514      -0.33059055
Ta       0.71107108      17.24706495       8.17813815      -3.11704791      -0.26015373      -3.20895004
Ta       8.60611700      24.50275677       7.83359462      -0.69534126      -1.06313092      -2.01170497
Ta      16.96035047       6.59865647       9.20126309       0.66421703       1.67956868       1.39290911
Ta      11.52749848      19.90508192      12.54437333      -1.29154394       0.39541395       0.64524366
Ta      10.40926447      24.93758699      19.96156577      -1.76670320      -0.73586029      -2.99781477
Ta      19.32814849      24.77855728       7.97711368      -1.28092074       1.52346006       1.74689430
Ta       5.24215485       3.54705631       8.33969548       3.89331132      -2.11169440      -0.11312597
Ta      14.63701429       7.20617956       7.78177541      -1.79334319       4.53581694      -2.49692392
Ta      19.35145170       3.23289350      20.50272506      -6.25082707       0.57907848       5.26496576
Ta       4.76750621      15.45140089      16.95553359       0.44576030       1.38291546      -1.05530231
Ta       2.17598305      21.23497926      12.19119890      -0.01091583      -1.47893441       0.48176897
Ta      20.70191091      21.95931693      11.56948916      -3.55707274      -3.02276418       0.69211447
Ta       8.29217154      13.62261708       0.45699349      -1.28044903       2.77894950      -3.39295036
Ta      11.22138457      17.80496339      24.69715137       7.14315873      -0.34778336      -4.21063882
Ta      16.93887200       2.32364287       1.02613227       2.47565043      -0.20830327      -3.58186173
Ta      23.71758636      23.68397897       4.16558663      -0.98597482       4.68044689      -0.57967514
Ta      16.61933206       4.37213388      22.65433687      -0.77315187       0.51319982      -2.93430543
Ta       4.33923674       0.72382177       1.87428140       0.92958328      -2.73758334       0.28585503
Ta       9.79397765      14.25223928       8.84582300       1.64496827       0.24030364      -0.69412509
Ta      12.92438036       0.18207634       5.30982778       2.73532364       0.28371800      -0.81777708
Ta      15.31375706      21.71141505      18.35558135       2.06130028      -4.18079686       4.42219472
Ta      11.62596272      13.28829069      11.33047375      -0.82644093       2.43784761       0.93308726
Ta       5.69586104      17.68032521      19.00058886      -1.17315277      -0.01259230      -0.22903207
Ta      21.47121554       7.68703813      17.56505425      -0.84303313       0.56166181       0.08250771
Ta      22.92659728      16.75018980       8.30540833       0.94960305       4.23191813      -3.91367453
Ta       6.14847678      21.42992094       2.70330568       2.32903664       1.12519181       0.18879993
Ta      23.85512771      21.74228019      23.64481378      -1.77320036      -1.05101424       5.38363713
Ta      14.58270283       1.92712755      21.16492322       1.27184369       1.55314589      -4.09776640
Ta       0.45567867      11.05712307      20.28250643      -2.12959729       0.52339849      -2.57562792
Ta      12.28907765       5.95534569      15.30298267       0.72433007      -2.11924377      -1.52541283
Ta      17.28484561       4.46880161       3.63933479      -1.43839561       0.23150158      -0.95014472
Ta      22.63883360      17.30489051      14.30567653      -1.07610497       2.44600976      -2.48849947
Ta      11.64178666       8.00648105      21.37617737       0.14690045      -1.10644783      -0.01910603
Ta      12.83657698      11.12164073      14.90119282      -4.82162738      -0.10699892      -1.41193987
Ta      15.66501171      24.93286182      23.55433971      -1.31897116      -0.97808361      -0.18925307
Ta       2.95054776       9.78652758      15.07146959       0.16997302       6.83716640      -2.11274207
Ta      14.59067001       3.62579185       1.47819001      -0.26776894       0.09639150       1.06482059
Ta      24.99267272      17.23128322      19.72820545      -3.28022820       4.61997372       0.67595911
Ta       6.22118395       4.04866665      18.23231346      -3.10063267       1.18691975       0.66498455
Ta      18.02900174       2.59299544      15.55942051      -0.02307785       1.28687224       0.40658104
Ta       0.63073833      22.74624879       0.73852202       0.22521219      -0.12689143      -2.13665009
Ta      22.77234876       6.82471430       8.94481444       1.07086867       0.82549183      -2.02905616
Ta      17.41183865      14.17497208      17.16915670      -0.14245600      -2.09406537      -0.54058155
Ta       4.11690232       5.71702013       0.26939827       2.87731910       1.27383098       2.31387815
Ta       4.99519277      18.58929815      11.77810635      -3.86534265      -2.39234442       0.68866372
Ta       8.51260893       8.14002013      23.13935383       2.08868408       1.55013470       0.23295372
Ta       1.68800396      13.69628714      24.79532573       0.37581765      -0.54451813      -0.94856898
Ta       2.43360757       5.48240825      23.65329119      -4.56812155      -0.03826052      -1.96342239
Ta      18.03960689      22.62249455      16.29407595      -1.83237278       1.89076576      -0.36226934
Ta      23.67942975      12.61216866      21.78610742      -1.49792850      -2.30778325       0.97336248
Ta      19.91461716      11.86665799      25.18296469      -0.94966137       0.08769774       4.40494549
Ta       7.97244374       5.21935677      24.46524113      -2.76665282      -0.54366347      -1.65075898
Ta       4.11723818      23.07671949      24.28631471      -0.00956762       1.14790922       4.32435608
Ta       8.55248020      16.35300080       6.66927423      -3.22305968      -1.54257131       2.74930739
Ta      20.13397952      21.27933512      16.51397790       2.64126289       0.58324885       0.82251462
Ta      23.04648646      17.03849097       2.95109896       1.00348210      -0.52021256      -1.46796448
Ta      12.96387575      25.15857571      14.96779001      -5.33257920       2.54945809       5.85841477
Ta       2.74585493      18.94883257       8.70798643       1.81821454      -0.07018220      -0.11894816
Ta      22.45750686       7.09874455       1.89195711       1.05938445      -1.13869947       1.22831663
Ta       7.25390770       1.77430632      12.82207716      -0.66048214      -0.62866846       1.89837360
Ta      12.33182537      17.99973609       8.70433317      -0.95668530       2.95997757       1.55435523
Ta      19.48575851       5.86199188       1.16343752       0.41828376      -3.24793905      -1.35270259
Ta      18.30273064      16.88740118      18.99646322      -3.31077397       2.25366932      -0.07463005
Ta      24.54829883       1.03318032      15.08778607       0.08093208      -0.45376208       2.33775458
Ta       9.75861730       7.57297361      14.65935298       0.30021122      -3.07431078      -0.23265742
Ta      15.58776200       5.50709590      12.86144208      -1.07499875       1.13473000      -0.90985071
Ta      21.88141209       0.69141911       9.28972686      -1.94124135      -8.41060475      -0.41536597
Ta      17.73890153      13.08441726      14.07032428      -1.86335286      -0.33950016      -2.46632832
Ta       4.65160110      16.06587313       8.99175320       0.14614824       0.17636438       1.09036210
Ta       4.00782602      12.76155575      10.52313745      -1.31123626      -1.96809548      -0.86168540
Ta      18.28015028      16.34344557      15.33429935      -0.05524795       0.55677276      -0.22964274
Ta      16.35760592      14.49329762       6.69006359       0.54442330      -2.10280144       2.50393218
Ta       0.99905047      24.57062838      20.66833841       1.38701630       1.51895696      -1.88799632
Ta      23.79932143      21.07754656      16.62729262      -0.25789481      -3.97189042      -2.82233727
Ta      22.59329644      23.39735334       1.34600796      -1.13442378      -0.56046337      -1.25669943
Ta      20.83969988       4.43539399       3.54795587       0.15562552       0.31230317      -1.86505136
Ta       2.51191242      24.38290885      17.90288979       0.41060585       4.32300770      -1.19879198
Ta      25.23504018       2.26850440      19.77784669      -2.25446725       0.88197476       0.61219561
Ta       6.92741039      15.50483184      23.22601557      -0.16326934       0.56487685       1.21977869
Ta       3.59309107       5.75539764      10.10438668       1.51814556       4.70473903      -0.80422398
Ta      23.43107043      23.34078148      15.17588262       4.50664270       1.43950531      -2.98681079
Ta      10.61156696       4.91911372      21.74924951       4.27887228      -1.26240577       0.41356816
Ta      21.20533582      18.71189931      11.78813703      -1.28861783      -0.44071978       0.81661248
Ta       5.31940115       0.40877782      19.41705808      -2.13153350       0.11697720       0.74159443
Ta       0.76633324       2.90683872       4.21656131       1.73744790      -0.72824432       1.67523867
Ta      14.13205527       9.28461457      19.29546049      -1.64540191       1.54333730       0.81566942
Ta      16.49806502       2.26686834      18.70079225      -0.87626903       1.69939294      -0.13613927
Ta      24.60850848      20.53207790      19.09623450       0.69845465      -0.49334536       2.31047225
Ta       8.53359860       4.17233195      14.02790270       1.10477988      -0.43757072      -0.29609901
Ta      14.80517561       9.23284253      10.06570363       0.16351272      -0.09168944      -0.26868945
Ti      20.36739570       2.22915177       6.32354439       0.62193403       1.70273409      -1.45614687
Ti      21.48332194      13.58803181       1.99727951       1.95010889      -2.37268621      -1.50885475
Ti       9.44853960      17.53372035      11.20696052      -1.41516613       0.90546831      -1.71717489
Ti       2.77242628      17.90268603      18.64100637      -0.78972763       1.00761756      -2.24906141
Ti       7.15045591       5.35310449       6.30804687      -0.77505136      -0.14149705      -1.10132104
Ti       2.13967857      22.69113127      15.46851306      -0.90419967      -3.98503233      -1.49647418
Ti       6.68645657      17.59512640      14.78877377      -1.71946505       0.87537596       0.47422140
Ti      13.24835087       7.91225816      13.39928053      -0.86451340       1.02262387      -0.81120351
Ti      20.99729229      22.76829181       8.65372344      -0.44302462      -1.56216288      -1.67973014
Ti      10.98570503       1.61862294       7.12938043      -0.36022341       1.91606039      -2.20906529
Ti      16.32320567       7.60798234      24.65235421       0.36644293      -0.94052684      -0.70159689
Ti      17.80446629      15.81575485       9.49857749      -0.84685755      -0.37005895      -2.47334456
Ti      16.05477132      21.34325211      22.67170495      -0.14524760       1.56701738      -0.52245647
Ti       8.85573993      12.98269147      16.82336194      -0.39368680       1.27349854       3.50643215
Ti      17.12008377       2.04675884      12.84453178      -2.84028000       2.05587327       2.67308360
Ti       1.36164501      10.96112086      17.35069797       1.37578630       1.37833768       0.20588857
Ti       6.44456298      18.89539747       1.32674904       3.24706176      -3.83259386      -2.31610876
Ti       0.14450002       1.68964900      10.12599828      -1.50266844      -1.11853784      -0.45695844
Ti      23.66537183      18.80689225      24.92071631      -0.60268661      -0.61959858       1.08080792
Ti      20.28350301       0.07312252      24.80442167       1.64847252      -2.72387791       2.48394027
Ti       7.70535496       2.35448868      25.27070959      -2.31692889       0.91049349      -0.83136489
Ti      23.72760740      18.41801164      10.01979465      -0.75018723      -0.21172649       1.33324307
Ti      11.69705191       8.67686633       3.12611665       0.48660052      -2.05671531      -1.01203191
Ti      11.67525457       2.48465492      25.14912204      -3.25817442      -1.57920909      -1.99747413
Ti      22.83236989       9.16173143       6.56676341       1.26044665       1.46712977       4.40480757
Ti      14.45283601      16.78663176      17.88170819      -2.36635414      -4.24288380      -4.99138063
Ti      23.23835200      19.96687381      22.00091628       1.12451988      -1.42384207      -3.62125528
Ti       9.24502688       8.40049790       9.54874816      -1.22349465      -1.59651160       3.44981221
Ti      14.38951148       4.93384300       3.98373459      -0.82336502       0.45116720      -1.63031489
Ti      21.36317782       2.88865609       0.95789591      -4.38877100       4.27345335      -2.52137989
Ti      20.39377320      10.69415353       6.58632905      -1.57769603       0.97851714       0.54053493
Ti      23.22249757      24.65060404      12.04843116       0.32748340       0.33577773      -0.40000542
Ti      12.10788272       9.17490931       8.08657357       0.63991547       2.09855065       0.34386653
Ti       6.51025949       6.99304768      15.99759858       0.55246513       2.75405921      -3.78045201
Ti       9.10290916      24.87398882       2.00343693       1.63505954       0.07145232       0.04156950
Ti      21.83675362       0.21909408       5.59383977       4.25342408      -1.17288733      -1.32126790
Ti       6.98460727      21.94777940      23.42430788      -0.68372318       0.70200337      -1.83826542
Ti       3.76118603      23.20115356       4.00607284      -0.28758216      -1.11428916       0.23676564
Ti      16.86093285      11.80850258       6.15555981       1.43659312      -0.47797548       0.74370840
Ti       6.59964217      12.06616712       3.33543805       0.00036669       0.16659226      -0.51631862
Ti       5.21114567      16.28114569       0.32988168       1.21657156      -0.25877029       0.59052880
Ti       3.54917303      23.32123388      20.89538687       1.60132098       0.30074182       0.13567441
Ti      18.17374554      24.83731405       2.12165867       0.30324711       0.05968751       0.71591938
Ti       9.96755961      23.90633747      23.62345858       1.10259545       0.53968385       1.52720022
Ti       2.49184643       0.11789512       3.62043503      -2.79566121       0.63505487       0.32138875
Ti      20.13918076      18.23479495      25.39374851       4.23303032      -0.61322975       0.60002762
Ti      19.43967871      13.35020210       7.50167264      -0.90058443       1.28121090      -0.59641606
Ti      23.70967627      18.98271476       5.38304851      -0.13556707      -0.07229303       2.03197408
Ti      13.69002747      23.99252169      10.13978148      -2.07799804       4.96878438      -2.84704489
Ti       1.56780117      11.25628213      12.65573488      -1.41995430       1.15646318       0.71671455
Ti       3.10820952       3.70975961      16.83498204       1.56272554       1.24110290       1.82024080
Ti       8.28851942       2.66639689      18.81122247       3.23205185      -2.15816328      -3.46424796
Ti       3.64369598      16.15035742      23.37436700      -0.25443736      -2.40967810       0.23683262
Ti       3.05266048      14.98077063       1.38552289       1.75987458      -1.99137601       3.25254265
Ti      10.26181772      14.45224564      15.10893484       0.31860703      -1.77263081      -0.54778218
Ti       1.39846478      24.55057169       6.02518753      -1.70855929      -1.93231809      -2.43876559
Ti       2.21575734      16.33795297      20.66016162       0.50366979      -2.74126616      -0.45976627
Ti       8.98086597      18.87647382       2.48848741      -1.40276167      -1.50172934      -1.24801371
Ti      15.60805084      17.80427655      21.42901212       0.39502275       0.37601881      -1.29844341
Ti       0.89569300      20.19360740      24.33811181       0.26202939      -3.62918210      -3.72203690
Ti      11.10995010      20.92060156      15.16683107      -0.45409504       2.47253621      -0.73740378
Ti      22.02120329      13.11258517       8.53122545       1.30534542      -3.63365591       1.55264908
Ti       0.05623117      18.35180552       3.37794905       0.84394661      -1.39379272      -1.67764759
Ti      14.00457929       7.55629518       0.82647834      -0.55465861      -0.60518226      -0.09196320
Ti       4.29812384      20.82727873      22.14003639       1.64197037       1.86025536       2.34165403
Ti      23.62237838      20.41223341      13.40715778      -1.44420493       2.12120518      -1.02560300
Ti      10.90479990      16.37511287       1.97312218       0.53651502       1.28836167       2.02163348
Ti       1.66309970       9.68911589       4.74853201       2.41274794      -2.69089514       0.23244792
Ti       3.98431113       9.51390748      23.78648113       0.39147878       0.64734977       0.37561174
Ti      10.00709122      15.56891474      24.04231220      -1.43134665      -2.66876113      -0.96120864
Ti      17.79041150      12.68762824       2.44007872      -0.36048281      -4.28149533       2.37650925
Ti      19.53046111      17.60065669       9.47276332       0.37601477       1.52330586      -0.09441018
Ti      24.48268855       9.75851059      13.59534379       3.06756067      -1.52572624      -0.39812315
Ti      25.21523828      11.16029731       5.45450216      -0.71092153       0.48523642       1.29142785
Ti      24.62897441       3.41232044      13.01891636       0.35509035       0.71950949       6.41051590
Ti      12.58255755       6.52290969       5.52238464      -0.83171950       0.35119799       0.28699265
Ti      17.71023767       2.88066768       6.09094945      -0.41847409      -4.83376694      -3.68577653
Ti      25.35275321       1.12988871       7.20232850       1.97067705       1.95834839      -2.78240269
Ti      14.43640234      13.62556538      16.59764064      -0.29891115      -0.52433749       0.58068111
Ti       3.44973497      25.22120779      14.83723966      -0.07346304      -0.45675677       2.18253553
Ti      12.84867731      23.32055245      24.65413266       0.11257493       0.08003959      -0.95879674
Ti       0.07506722      12.33907091      10.32593519       0.60643507      -2.34034398      -1.82300150
Ti       6.65315998      24.38107278      11.66052011       0.35872888      -0.82438792      -0.40464812
Ti      20.02760152       4.80308575      23.10850932      -2.02092421       0.99842441      -0.71271834
Ti      15.26709550      18.21379810       8.95697608       0.63706498       0.84053797       0.25670270
Ti      12.99883948      23.97990771       1.65076938      -2.45676017       0.10061085       0.44618285
Ti      23.56571656       6.25180886      18.68938476       4.42563209      -0.84762308      -1.35332102
Ti      17.11626092      10.57527974      21.46537223      -1.91748245      -2.81890073      -4.14713240
Ti      18.47582826       0.24331826       5.48075127      -1.06294724       2.52506177      -0.52077052
Ti       9.16009354      13.70666873      21.08948625       0.63820991       0.94783276      -0.87797685
Ti       2.72433372       9.03711316      11.16280629      -0.47220714       0.01517868      -1.86530930
Ti      23.75347630      13.46702724      24.64344886       1.07144362      -2.05565694       0.60094891
Ti      14.00636161      22.30323571      11.62042196       4.16530523      -3.86277670       3.32212394
Ti       2.12847550      18.31900730      22.20359677      -2.11733210      -1.13352007       2.11542976
Ti       7.85779050      23.46247785      20.53832701      -1.44116521       0.54587089      -0.69472862
Ti      17.81354406       7.75425745      12.23568353      -0.23621610      -2.82566053      -0.91535187
Ti      10.79905862       7.36457150      25.07815916       0.77997798      -0.23744053      -1.06896740
Ti       1.18550899       6.38434520      18.60082815      -2.08673294      -0.34723103       0.95514225
Ti       2.56218227      20.22530519      20.20221701      -1.08256043      -0.74260300      -5.42414641
Ti      13.70861352       5.01517614       8.84358593       0.41709816      -2.20689756       0.79719189
Zr      15.71125800       5.14638298       6.32686740      -0.60692351       1.25078306      -0.79675508
Zr      16.28645275      24.51203133      20.11186611       4.82368076       0.29429400       0.72409302
Zr       0.81761606       5.84526944      15.50502483      -1.66118276      -5.01337713       1.20482118
Zr      24.77078926      13.94979646       7.03456108       0.58568251       2.59618873      -0.86061758
Zr       5.98841109       5.69532546       2.97856715       0.06007493      -1.50266159       1.11811379
Zr       3.62270876      16.67122849      13.63492813       1.13371810      -0.33512753       0.92197314
Zr      15.38037908      10.28745106      12.84658023       0.15621340      -2.03737155      -1.44270786
Zr       9.08140708       7.12698913       6.99446205      -0.72726768      -1.98747104       1.20786041
Zr      14.46227627      20.80019162       0.42380640       0.18546745       1.11320820      -0.40026705
Zr       1.04436861       6.81799229      12.36560505       0.10788273       0.67849669       0.75629980
Zr      13.37038542       2.98016592      13.30854626       1.46851726       0.06311953      -0.00817598
Zr      17.45067889      19.11415042       3.73835172       1.80256689      -0.46658227      -1.81401026
Zr      21.76864811      15.93489703      11.08259821       0.28062644      -0.94482978      -0.98091358
Zr       1.81245864       8.64170054      21.73462419       1.85530281      -2.70681280      -1.12691602
Zr       8.32199524      21.57712293      12.84794318      -8.51894426      -3.24930449       0.88536282
Zr      10.16851698       9.54262513       5.89681969      -0.28815818       2.42941511      -3.50239557
Zr       8.62020800      11.37118178      23.82333017       0.42660695       2.15620750      -1.65488410
Zr      25.06091772      24.28132565      23.58317306      -0.14041692      -2.22882536      -0.80670929
Zr      25.01758660      16.31711693      22.62107339       2.13064648       2.43297765      -0.45529896
Zr      18.71293943      14.50737051       0.71167806       0.34290355       1.46002930      -2.14560193
Zr       3.96940037       0.74480947      24.53963052      -0.21506990      -0.36164075      -0.61250383
Zr      24.33285573      23.47934903       7.48682447      -2.92554510       2.75180006       0.40189716
Zr      11.08217177      18.94819694      18.61151313       2.75165877       0.20041490       1.55203655
Zr      20.44467469       7.40594477      24.64380295      -0.74646321       3.57183087      -4.05539928
Zr      25.37419251      21.39208732       3.20236249       1.52796227      -0.80127996       1.14819831
Zr      22.09832510      24.96817989      21.48684526       2.78874004       0.10035433       0.31747919
Zr      24.38955328       6.42349082      21.96509124      -1.76527260       2.64356315       2.02169329
Zr      19.95452314       2.98175081       8.85401113      -3.36582579       3.95873816      -1.09030560
Zr       3.26314339      21.11941857       0.70079571       1.54727992      -0.37966793       0.58613375
Zr       5.61923840       4.29434537      15.30374959      -0.71096236      -1.42197675       0.77229284
Zr       8.94442101       1.26747682       9.58406231       0.59304022       0.61029303       1.61940163
Zr       6.83428542      14.80361343       3.90271548      -1.52243987       2.29736510      -1.77657336
Zr      21.04655936      10.57884199      16.39601527       0.45936171       1.04037803       0.28849103
Zr      13.70544603      15.25169036      24.60532645       0.30911624      -1.78421241       1.04189107
Zr      13.35841260       9.05612900      23.48574294      -2.19429615       3.73377892      -2.30845153
Zr       4.93410001       0.96219838       4.77449577       1.05915058       0.13459122       0.09535992
Zr       0.66070416      16.44760365      13.27472228      -0.94533977       0.60884342      -0.34763402
Zr      21.42471784      16.77625377      19.11725385       1.12426361      -1.33306003       0.82562834
Zr       0.88407199      19.43437732      15.87995413      -0.12299234       0.65841973      -1.27326930
Zr      24.76673649       4.90984876       1.56661888      -1.24335366      -2.25600635      -1.88645029
Zr      20.63751693      15.89279260       6.68853764      -2.37075645       4.12496841      -3.04795668
Zr      10.10614046      25.20497884       4.89362031      -1.23204184       0.75336060       0.99201882
Zr       2.81273912       2.03450811      21.32639373       1.23556632      -1.34902787      -1.70913167
Zr      13.47540419      10.39481253       5.42078407       1.76166529      -1.43782532       0.36880344
Zr      17.31552180      22.63077627      10.89350865       2.05666605       0.72003732      -1.34265620
Zr       6.73185168      24.29410578       0.43737657       0.08520183      -2.75414768       2.23617941
Zr      10.71414794      20.78023908      24.06229321      -0.43506026       1.19418645      -2.86712015
Zr      13.73784748      10.72728866       1.84801603       0.56874108       0.46780094      -1.33408558
Zr       5.42885649      21.01787126      10.62463954       2.42607089       1.01071557      -1.52494526
Zr       9.75347786      14.92875801       4.49629927      -0.47077928      -1.54709995      -0.13893914
Zr      11.44259204       4.27427969      10.92728921       1.16699541       1.40044576       0.86233002
Zr       5.35837909      14.78716124      20.17787889       3.18429267       2.87674081       4.47044367
Zr       6.02556870       1.43650499      16.52742052       3.36010841      -0.98638892      -1.47979215
Zr      24.70582818      12.71427388      18.06155171      -1.41237086       0.42686641      -0.05905530
Zr      14.45520162      16.30724043       6.35776560       0.44168699       0.87792596       0.33156991
Zr      14.92854900      22.95883134       3.38931537       0.45754253       1.82774311      -1.60325259
Zr      14.90014919       4.62280001      16.63341718       0.83218515       0.51212625      -0.35042995
Zr       1.39523768       1.86113153      17.58088284       0.29494795      -1.06714636      -1.57022241
Zr      21.45983434       8.65785963       4.76476990      -3.27342469      -0.74972558      -3.21212918
Zr       9.46732741       4.82082478       1.43153701       1.33261517       0.27282560      -0.88789597
Zr      14.89769409      15.47619658       9.97133448       2.01694965      -3.05299792      -2.65105510
Zr       1.61830391       6.44301948       2.90974841       2.38696010       0.26097971       1.61871833
Zr      16.95182289       7.20842466       4.33960285       4.95298632      -2.55856885       1.59902236
Zr       5.97966502       7.07805702      23.05673711      -2.02806938       0.72599283       2.40301049
Zr      13.34003166      17.22117916      19.78661283      -2.26531448       0.16099633       3.49573120
Zr       8.34203816      21.02917920       7.69420429       0.54197244       0.74972939       0.59431595
Zr      21.69687374      19.91423657      18.57172665       0.56812066       0.42305220       3.34245908
Zr       4.88299470      23.31951931      18.44359846       5.76758754      -1.44252568       1.27615136
Zr      22.66173266      22.80277106      17.96816234      -0.20314181       2.64358434       4.71662174
Zr      24.88693362      21.69499812       9.63428131       0.13861039      -4.54484801       0.31852148
Zr      15.74203025      24.62199667      15.65680910       0.79505256      -1.19650140      -0.88851203
Zr      20.28637384      13.20338852      22.76928811       0.10070497       1.76805648      -2.65473706
Zr      12.82696440      17.57678616      14.33594962      -0.97156245       0.41231419       1.66235515
Zr      25.05887826       4.31986887       8.80221721      -0.40859818       0.63896331      -0.10767918
Zr      12.37439557      21.28106104      17.88544764       0.23643535       1.81672373      -1.35643095
Zr      25.14945172       8.95533279       8.22414117      -0.76641333       0.89901942      -0.95672715
Zr      18.75101060       8.99406476      18.49865255      -1.43130231       0.80181158       0.58656967
Zr       0.00430222       8.48701269      16.29788076      -1.25304037       0.85849144       1.36644250
Zr      10.80693866      10.38063108      12.76570688       0.77097797      -0.85262501      -2.18361270
Zr       0.55125092      23.58226066      12.83476120      -0.08105093       2.13572383      -0.41602422
Zr      11.42736174      18.34298401       4.79731937      -0.28129066       1.06434283       0.23239371
Zr      25.33252487      16.43114797      16.04675810       5.75743683       0.13028783       4.36620307
Zr      19.34080590      23.97782728      19.41342630       1.56217927      -2.36189818      -3.28413969
Zr       7.25828044       9.62314527       7.17663771       0.47375188      -1.94958901       0.17055333
Zr      21.08474810      10.60611589      11.35164155       0.33458725      -1.41851306       0.83765799
Zr      15.37444595      14.67196105      20.09382887       0.01159777       0.59716494       0.54105467
Zr      21.08659990       8.80635321      20.39349355      -0.87962922      -1.08412296       0.62628749
Zr       7.65023439      13.29123274       6.20671153      -1.75996567      -0.25926436       2.84365174
Zr      16.94730899      16.88927851      23.71907747      -1.60295656       0.36315984       3.44478351
Zr      18.68013965      19.45104504      13.54087639       0.13641042      -1.31962830      -0.19857001
Zr      20.72707770      13.24517210      14.15801212       0.40863764      -0.82301812      -0.84574352
Zr      24.81546181       8.49121180      24.87338431      -0.33568582       0.42526789      -0.98667335
Zr      23.72363534      14.57869483      14.26641543       0.51916420      -1.16525882       1.04524899
Zr       7.29618528      11.84107917      13.20623362       0.85776973       0.94163528       1.98278284
Zr       1.96742170       7.43025705       6.86595940      -0.36888415      -1.82923836      -0.86341566
Zr       9.85772118       4.87076645      17.06463388      -4.23132342      -3.77727310      -8.94866258
Zr      23.30705800      12.18100828      12.65642098       1.59059585      -0.41097361       0.04941612
Zr      20.12522888      19.50845322       5.52649129       1.13035882      -2.49669087       1.05380031
Zr      20.34336867      16.10111661       2.62520891      -0.84164198       2.31488937       1.75208217
Zr       7.41297048       8.53603578      12.93190955      -1.35325983       0.21333289      -0.44125685
