1000
Lattice="22.90502845 0.0 0.0 0.0 22.90502845 0.0 0.0 0.0 22.90502845" Properties=species:S:1:pos:R:3:forces:R:3 Time=100.0 virial="138.40874529 58.41173106 -86.38145663 58.41173106 275.01337403 150.231798 -86.38145663 150.231798 170.0785393" energy=-9442.69338522 stress="0.02586241 0.00486127 -0.00718903 0.00486127 0.03723123 0.01250293 -0.00718903 0.01250293 0.0284981" pbc="T T T"
C        3.46829204      17.66543612       8.67799932       0.59609514      -0.70430021       0.30273156
C       19.99091443       7.48617555       2.86350752      -0.39337572       0.43641856      -0.20335035
C       12.96847898      15.92411782      15.01644453       0.65181642      -0.41553023      -0.06995409
C        4.64206406      10.28120998       9.40201650      -0.10016383      -0.10041965      -1.58197099
C       11.46315026      16.56397962       0.69789535       0.23665152      -0.31213817       0.04639921
C       21.92173906      14.58643136      13.78679316       0.06967965       0.19137546       0.05443659
C       16.99037656       8.75457361       3.95163046       0.09479196      -0.52477270      -0.28333014
C       15.16672280      12.91510818       4.44274133      -0.04920635      -1.06094956      -0.65645467
C        2.60505458       1.05013721      18.73378403       0.86367375       0.05561827      -0.65705460
C        3.57142143      15.14947627       6.24932261       0.06513017      -0.11073426       0.71346468
C        9.25308280      10.55652143       1.95930547      -0.47497393      -0.50799854      -0.14411497
C       17.13109193      12.08420951      18.80218997       0.05384439       1.51822448      -0.23501687
C       16.05670406      18.19742321       6.00195537       0.91238861       0.48894216       0.17403510
C        0.22187508       5.49675410      11.94137383      -0.32699136       0.12992993      -0.48456430
C        2.88403516       5.35524639       0.33030199      -0.47850195      -0.74428648       0.37593246
C        5.46407758      17.99114405      12.82236120      -0.05985692      -0.35213181      -0.25837334
C        8.40823238       0.34285021      18.86187655       1.31306916       0.49032713       1.35271210
C       21.22199528       9.65152562      12.22286279       0.29181588       0.56024769      -1.00683070
C       11.36838455       6.41494328       1.51453877      -0.82980463       0.35879030      -0.15955481
C        3.64576634      16.35692506      19.18692444      -0.06656104      -0.53779092       1.50283319
C       19.91749163      10.87731157      17.53796898       0.68175074       0.61946806      -0.97129209
C        4.73594219      19.29158546      18.51482427      -0.68018425       0.32230911       0.22687000
C       17.63264476       7.97583081      12.03005289      -0.49076223       0.99905652       0.45719349
C       13.18286769      13.60464241      12.95858231      -1.42846429       0.15608328      -0.66757709
C       12.34760544      16.40105875       7.91548404       1.14693433      -1.32797995      -0.54313977
C       14.00276631       6.20809828      13.25657247       0.94731498       0.85718241      -0.70995423
C        0.93323307       6.10947874       9.01587893      -0.04929928       0.45724586      -1.25205036
C       21.09452440       7.26005711       9.99066083      -0.16127643      -0.80566870       0.04059955
C        8.52453794      15.41469839      22.43995826      -0.32979869      -0.49834919      -0.58872828
C       15.26883704       7.11769302      10.11230016      -0.91926768      -0.83480287       1.07007964
C       16.24176951       7.91869200       6.93333500      -0.28505658       0.02439764       0.14194281
C       20.52488270       5.74761909      20.45507737       1.15314466       0.16406274      -0.10093725
C        8.36369189       7.62884434       2.52385023       0.61913328       0.07326668       0.53483361
C        8.38938330       3.68486869      20.90537226      -2.32373743      -0.38049585      -1.33221874
C        1.62186842      17.29954424       4.55477848      -0.26157954      -0.26029363      -0.39773879
C        7.47091940      19.35330197       6.82737381       0.15018152       0.27301210      -0.06627415
C       22.70390860      21.80386723       4.85310548      -0.21418243      -0.56515279       0.37895450
C       10.45402638       6.73242996      17.28066773      -0.54304789       0.80322918      -0.09621032
C       20.30140532       8.65625992      15.10496735       0.33823323       0.68636119       0.66209733
C        4.56792850       7.89910787       6.97713726      -0.86045825      -0.02974848       0.33114460
C       10.22477638      11.33893417      21.99111898      -0.48188195       0.00439511      -0.79235968
C        0.74986176      19.86080189      22.54548249      -0.34991488       0.61048359      -1.40300357
C       19.89564519       9.65960267       5.12173290       1.22022648       1.12845024       1.12776439
C        0.22168594       9.71014824      16.40284239       0.07705939       0.23607509       0.09324368
C        9.26440670      17.52948442       8.78720786       0.55543138      -0.56689712       0.70573179
C       11.35483102      14.27093658      21.31701322      -0.80541784       0.36225852       0.16454561
C        3.62895801      18.56467707      21.55064873      -0.59850103      -0.29469078      -0.80338641
C        4.59907625      11.31322410      21.91794288      -0.66620195      -0.11066658      -0.67689684
C       17.04828884      22.26537823      17.76757929       0.95498323      -1.03469290       0.03224328
C        8.19846541      18.99281429      14.11001559       1.58727020       0.00925729      -0.32306854
C       14.07652689      20.12025695       4.07387790       0.01679443      -0.52087395       0.42623524
C       21.62132592      18.31918099       5.90534094      -0.44935530      -0.23028162       0.31727928
C       16.96633228      10.91550134       6.29912256       0.38543825      -0.36079042      -0.46564512
C       20.63450219      21.91520340      13.53473052      -0.02416688       0.81989875      -0.85772008
C       13.29576412      22.70535788      21.93612015       0.20108913      -1.14884567       0.73017251
C        7.42063026       3.36190366      13.95131496       1.43861359      -0.04990546      -0.60515862
C       22.58453384      19.52239201       2.63055513       0.26128730      -1.59129971      -0.00615942
C       14.17232573      13.33580095      20.18300188      -0.02451754      -0.43752635      -0.24480909
C        8.46753318      14.34441359       9.73967118       0.08868231       0.12607283      -0.51557630
C        4.77612886       4.66619838      15.09221379       0.91422643      -0.64877963      -0.69537082
C       22.00526485       6.95168052      17.02270895       0.80163985      -1.23843187      -1.04617578
C        4.61885819      14.85208187      13.79197703       0.27133462       1.18426442      -0.53841512
C        2.69978168       3.31114767      20.99578656      -0.10135871      -1.85199034       0.09658584
C       19.89864756      12.06101263       7.38543308      -0.16073178      -0.46463597       0.32538594
C        6.48774160       2.64455070      16.89216791       1.18042707       0.26746832      -0.57088538
C       22.28668984      19.64911254      15.83000674      -0.50099224       1.04829974       0.05550313
C        8.44219341      22.34425831       6.13225803       0.60549831      -0.09830576      -0.59277287
C        3.58555694      12.83335509       4.18189330      -0.10299641       0.62419143       0.82093726
C       16.19523186      13.56747496       1.34605098       0.11994182       0.42005526       0.29326184
C        6.80482391       1.34449610       4.26614956      -0.31610445       0.22044009      -0.12428215
C        1.77180446       6.73596249       5.79221549      -0.05588938       1.15615359       0.23930407
C       13.30345419      12.47835097       0.22107473      -0.42851144      -0.34659974       0.32777018
C        7.54132770      16.82376223       4.77362192       0.33046247       1.24184573      -0.75585198
C        3.72928363       8.25033970      22.49143787       1.69858825       0.96516097       0.64167373
C        9.20598859       8.34547810      22.57312080       1.36901787      -0.75106165      -0.10862818
C       11.48761215       1.25169482      19.97776978      -0.72570962       1.89544785       0.19535221
C        6.52442705       5.02994090      19.06038177       0.83551115      -0.03343141      -0.37239873
C       11.27864275      12.19944927      19.01955435      -0.46363309      -0.29382601      -0.02354337
C        7.63358992       5.55470436      16.13335949      -0.14897144       0.60512021      -0.11748128
C       20.55074648      17.33217552       9.09468173       0.65392524       0.28999608      -1.39805034
C       16.04336497       0.97592458       0.26576141       0.21097765      -0.83327588       0.01542524
C        4.71776280       1.22174449       0.06991577      -0.48647259       0.06303775      -1.13523594
C       22.00456558       1.05322743       0.09184330      -0.80955833       0.69631548       0.56200249
C       18.75983735      20.38917273      19.51163941       0.49173838      -1.41969984       0.50149084
C       21.56502590      16.83084689      16.03290014      -0.29951257       0.32482505      -0.52493840
C        1.91691562      19.59297678       6.83872586      -0.31938878      -0.31510894       0.20090425
C       16.14820496      22.75254053      10.56171024      -0.70038480       0.90737602      -0.84401610
C       12.24232392      17.26574206      20.45352638       0.21042790       0.62339975       0.04104010
C       19.05558571      11.25419019      10.44797616       0.73270637      -0.93958449       0.06090412
C        0.02290726       8.63519843       3.75868847      -0.25328782       0.27024026       1.88263747
C       10.12718012      14.80160040      13.78176210       0.44238792       0.75586855       0.44410738
C       22.25077456       2.57514422      12.56683946       0.00078058       0.27214779      -0.57653952
C        6.56189864       7.39647796      21.24092649      -0.46754042      -1.03103921       1.45551179
C       15.23856364      20.67735924       0.93249987      -0.79223385       0.69054593       1.51164731
C        1.81703484      21.83887825       9.20926123      -0.30955148      -0.36285496      -0.15765431
C       12.26291850       2.65549722      17.15757925       0.31030250      -0.88831842      -1.33347365
C       14.27682122       3.97012859      10.82792025      -0.51400165       0.32519855       0.41005087
C       14.14490124      16.79258294      12.03641255      -0.64130193      -0.91303515      -0.55301959
C        5.13236982       3.60617958       3.18758578      -0.17139587       1.88647293       1.76062298
C        2.65838904      16.74320778      11.90670838       0.65078145       0.13620161      -0.29377070
C       13.32473695       3.23451173      14.00756204      -1.79569550      -0.48554835      -0.37933812
C        8.22321963      13.03482950      20.05234064       0.38747838       0.32126805       0.89115424
C        0.79777341       2.95723914      17.03820124      -0.56021941      -0.99993965       0.33263093
C       18.66384069      15.77624558      14.88407497       0.55453186      -0.54271016       1.11924648
C       20.94293913       0.47241290       3.11056296      -0.57231813      -0.12777113      -0.28740382
C       12.23614936      10.72322859      13.51386223      -1.59130033      -0.32358532       0.13132764
C        0.18089761      12.01536067      18.82566266      -0.23609301      -0.25247133      -1.39795199
C        0.84468461       4.90932191      19.21122368       0.45213175       0.23055184       0.27934749
C        3.85827016       4.96767779       7.74530422       0.05072924       1.14312768      -0.53518651
C       11.41485272      21.21239396       5.16976831      -1.51490170      -0.23359187       0.14547780
C       19.15639047       6.81439221       5.82386787      -1.29724544      -0.59469382       0.78622180
C        2.32684888      18.66115538      14.58444633      -1.90501469       0.23560786      -0.24041408
C       22.63188029      13.31057847       8.52450745       0.45388208      -0.41001536      -0.80267465
C        5.46213115      19.12950805       2.75502960       0.62566813      -0.82270414      -0.40393539
C       18.03227409       3.70841133       6.77326097      -0.68633159      -0.82356266      -0.07760744
C        2.49025755      14.52361817       9.37261699       0.34284943      -0.13062203       0.31627952
C       19.45191522       4.82346965      15.33148080      -0.39435859      -0.25614235       0.40641159
C       15.92711274      14.57997330      13.94102547       0.03445876       0.58296239       0.30676793
C        4.48861538       5.98066503       4.58566985       0.41245657      -0.21584693       0.01227580
C        3.05408545      20.88709247      16.51584499      -0.65654022       0.89769924       0.38525716
C       15.08890253      18.37418571      21.64969251       0.25124863      -0.26778957      -0.07984491
C       18.28966361      11.70193006       3.24019781      -0.08371456       0.13213978       1.19229287
C       19.51325219      21.10070931      16.42112386       1.24855205      -0.44706509      -0.79283670
C        7.38090626      12.37008379       0.20488420      -0.16945800      -1.00452360       0.02699393
C       14.17326432       2.88636831      21.22360866      -0.08304760      -0.54312973      -0.50208064
C        3.74426447       7.25727504       9.99783021      -0.04246386       1.37702706       0.12290969
C       17.00157119       0.71200677       7.50103150       0.68621656      -0.89864238       0.13887337
C        7.31431545       6.77588680       5.72271815       1.11198357      -0.83877970      -0.08696288
C       17.83221895      20.92086045      12.31383636       0.16704035      -0.74335435      -0.58858171
C       20.82804538       4.95757116       7.87237854       0.39923203      -0.44164608      -0.29719752
C       20.74329807       1.26332126      15.85881717      -0.17699718      -0.98056719       0.89116028
C        4.50301837      16.99108068      16.18651374       0.33677971       0.51002377      -0.70925656
C       10.52196159      22.85162937      10.42879006      -1.22813451       0.81948874       0.42721631
C       22.56076367      15.45820653      10.71502102       0.86993739       0.05566676       0.82114528
C        5.63530150      12.16877965      18.85945602       0.80583894       0.22853383       0.12967682
C       15.13886487      15.05001313       6.69399327       0.00801297       0.62396574       0.70503534
C       12.09259053       5.87736296       8.91072399      -0.01320434      -0.04114535      -0.27628773
C        6.61875962      15.17925668      18.20012402      -0.72345018      -0.18884563      -0.20197323
C       20.85604040      12.98308516       4.31281854       0.24839664      -0.77919066       0.83094394
C       10.35504228       3.18280180       2.33234901       1.40743417       0.47462909      -0.59510607
C        8.44858928       4.23398336      10.79455098       0.02799377      -0.51557785       0.91787344
C        9.34324531      22.11305036      13.34550639       0.63618231       1.02824457      -0.42216566
C        3.17988987      19.40585959      13.94219376       1.44482422      -0.39906442      -1.07160765
C        1.99555708       3.61591718      13.88643668       1.04040766       0.35127753      -0.45433850
C       15.19133650      17.46320171       9.00337034      -0.70067139      -0.14096130       0.09199812
C       19.47092735      10.42613181      20.31390509      -0.07572412      -0.88549447       0.20851189
C       12.19403402       7.32349634      21.53561612      -0.39678249      -0.40747027       0.07108751
C       16.08817831      12.31676240      11.66504520      -0.62337202      -0.54289183      -0.69633269
C       11.50969218       2.97452628       9.81154587      -1.03139237      -0.40023354      -0.30893925
C        3.68571886       2.84175759       5.54957569      -0.06959253      -1.50485569       0.58056223
C        0.05172649       6.43883092       1.48171989      -0.13942729      -0.58703575       0.73710123
C        6.43802788      22.02172711       2.04887716       0.87207797       0.09070604      -0.98115057
C       17.91367773       2.15245511      17.06707451       0.63650084       0.87223771      -0.07272214
C       16.15133902      15.78771652       3.70882099      -0.16287707       0.50267698      -1.87014410
C       19.90859577       2.85568121      21.35147526       0.13940366      -1.10498112      -0.38326402
C       19.76129387      15.58270769      22.14423217       0.42190491      -0.35375285      -0.18344773
C        9.35317310       6.19301306      20.19093347      -0.02955092       0.14775902       0.03984196
C        7.47554100      18.14106799      17.26310370       0.20896249      -0.63500702       0.24131140
C        2.15883583       5.86571930      16.04670427       0.46726152       0.54311106      -0.30582944
C        5.92660183      20.26702162      16.05736573      -0.51583973      -0.13031225      -1.35578477
C       11.37080242       5.11128854      11.95974344      -1.01542181       0.44450381       0.07731969
C       17.97358235       6.51988867      21.75681640       1.49647675      -0.74985832      -0.65099587
C       13.36063634      14.67835012       2.75097361       0.15632354      -0.31756239      -1.01474328
C       13.11075401       8.08828676      18.54930920       0.36102811      -0.12951260      -0.27526619
C       17.93043205      18.60361114      10.20680108      -0.24116523      -0.25053861      -0.97044332
C       16.14029207       5.64182297       4.73876153      -1.04242724       0.12279545      -0.19312260
C       18.10841492      17.44216280      20.15981702      -1.54517537      -1.36331397      -0.34542190
C        0.94984748      12.84214139      15.65327590       0.08439298      -0.80605482       0.59249939
C       20.99699430      14.07437528      16.95142590      -0.83952200      -1.59481445      -0.03432675
C       13.06325254      18.07203212      17.31661654       0.12124083       1.30043381      -0.44415700
C        6.62026814      10.62242317      13.35497577      -0.95836908       1.40478322       1.30017778
C        1.78385641       9.05116330       8.12604251       0.37856326      -0.34504487      -1.06003553
C       19.62080095      16.31130856      12.18148856       0.61621106       1.21968913      -1.18389851
C       16.78506882      17.60400005      12.94937084       1.22068888       0.38979125       1.24559265
C       19.14744075      12.42317008       0.06647133       0.44943237       1.13636172      -0.50622690
C       15.37160674       9.52695490      12.72405281      -1.74299699      -0.77415269      -0.11584696
C        0.86687320      11.93768831       3.06883401      -1.03011510      -0.42107102       0.83641180
C       14.99024180       3.61888881      18.37642108       0.72423798      -0.42677134      -1.26305687
C       18.96647626      22.85307658      21.93610847       0.28105843      -0.70732884       0.97457449
C        2.62232749      15.60443219      22.30974560      -0.02464778       0.18805009      -0.17833004
C        2.85027922       7.68511578       2.62572683       0.07923801      -0.67868632       0.06156573
C        2.66858682      20.37588894       3.78166774       0.01576912      -0.01060602      -0.91769680
C       20.83053970      18.72675916      21.22734945      -0.66162541      -0.54881875       0.51831424
C       12.38847507       0.30179042      14.65989799      -1.33248895       0.08492576      -0.04229277
C       19.97925756       3.92897253      11.05817297       0.29656641       0.49009573       1.16251770
C        4.61753026      12.65901045      11.47302641       0.53831392       0.28656431      -0.10447757
C        2.00769097      10.15768655      20.79633739      -0.30803776      -0.96616855      -0.19952321
C        8.39831745      16.68562377      11.88188021      -1.10585134       0.74279163      -0.72301486
C       15.74159032      17.02226954      15.89629181       1.04497486      -0.74282840       1.36980748
C       15.84306391       4.24610915      15.08257552      -0.48154262      -0.86467426       0.64365217
C        7.58755432       8.07270130      18.35253430       0.20744867      -0.01425433       0.00408889
C       14.98475754      22.11997907      13.40936333      -0.24736616      -0.76675534       0.11534911
C        7.56722237      21.69959288       9.07465171      -1.12902424       0.55164078       0.13769525
C       12.11859161      15.17972756      18.15610366       0.51559101      -0.00170691       0.16222754
C        0.90522236      21.13194739      12.22332533       0.28975654      -1.26630813       0.24475290
C        0.98642284       8.56002560      11.31012610       0.90209742      -0.25416905      -1.00902471
C        6.66586630      12.95646054      15.75215619      -0.99035409       0.46107167      -0.19291202
C       13.25900610      20.44084319      19.70702900       0.84615155      -1.81232619       0.08700139
C       13.17875413      21.76456320       9.38454438      -0.12964591      -0.39919713       0.86029367
C        5.80887657       3.15028777       9.68935188      -0.69145027       0.06573149      -0.06627959
C       14.08832606      22.52850909       6.31934477       0.94473425      -0.48444126       0.45025053
C       18.83858443      19.36542105       7.18107986       0.53982949       0.45704219       0.81235433
C       16.04287446      19.32154874      18.34567730      -0.34030323      -0.94938256      -0.10265974
C        3.71610487      20.04907715      10.92882271      -0.58538152      -1.12399793      -0.20763155
C       15.23498204       4.76753709       7.87369685       0.57542247       0.22646800      -0.76203837
C       20.71891754      19.57569998      11.21253831      -0.79099284       0.14134824      -0.32738996
C        1.09028200       1.81323120       4.32934158       0.40446770      -0.42572975      -0.42694569
C       20.44223187       6.53643598      13.17033382       0.19338512       0.42982334       0.42738885
C        4.55718695      20.75525005       7.85578480       0.31938887      -0.86404178       0.04915261
C       19.99850345       0.55551434      19.01662354      -0.06966934      -1.38461381      -1.78963578
C       11.27736024      15.60495454      10.81729937      -0.07187830      -0.31860657       0.40044788
C       11.49303090       0.64653821       7.38606374      -0.77128509       0.81403443       0.50667194
C        2.00164209      13.74959381      12.54777202      -0.92528030      -0.56417848       0.49804345
C       22.17893280       2.88008080       9.92320919      -1.30810976      -1.03169316       1.43731758
C       10.43463031      19.21852028      18.44473361      -0.45038297       0.02157479      -0.41828412
C       18.41391625      10.02450050      20.86293766      -3.41752005      -0.49889594       1.44275880
C       13.91999239       5.04073378       0.59549293       1.78560257       1.00920203      -0.00804654
C       18.77906869      17.24752113       4.72093709       0.47629939      -0.89495003       0.06294098
C       10.30507637      20.45245484       8.32640318      -0.84692675       0.35834357      -0.98091424
C       13.64469520      10.94095057      17.20994275       0.24042335       2.43614516       0.86952722
C       17.12508392      18.97893874       2.84559589      -0.26337206      -0.03134897       0.22240850
C       12.43720378      13.85970775       5.75155751      -0.54026160       0.43126665      -0.26187930
C        5.67720314      14.32499333      21.21195103      -0.53796345      -0.00907700      -0.03950179
C        6.30836451       9.41137930       0.84492821       1.06062974      -0.50799275      -0.54404008
C       22.84722523       1.60740663      20.08219639      -1.05571136       1.15193138      -1.08528373
C       15.01403161       6.19983058      20.51803702      -0.55512184      -0.54624863       0.07279046
C       18.24758247       9.53566841       0.95361362      -0.63636374      -1.31593329       0.58354087
C       16.01661897       3.27467922       2.46418516       0.22501197       0.11671041       0.68128841
C       13.98994513      18.97140191      14.21149455      -0.47318523      -0.56943990      -0.13065085
C       10.51260206       2.24787063      12.82208235      -1.51822257       0.09762605      -0.74796942
C       17.81100767       1.37147443       4.52579418       0.87866455       0.92635605       0.40208769
C        8.39408436      11.07656542      17.56075304       0.04661764      -0.33044958       0.97247322
C        4.87565660       6.76549549      17.18960793      -0.08355784       0.94047713      -0.72572021
C        7.43221475      11.38428128      10.42475028       0.50050655       0.57513580       1.22341883
C       17.98303245      19.67956568      22.72931367      -0.38148179       0.53301301      -0.03024787
C       12.25953859       4.88773688      19.28106721      -1.05222137       0.31674065      -0.85933411
C       12.31646096      11.65724428       3.15402928      -0.10087094      -0.23717106       0.22515596
C        0.89396396       3.94148716       6.65498440       0.30055851       0.82279119      -0.21841744
C       19.89840668      22.47797550       6.45840624      -0.39366090       0.26724779      -0.16231851
C       10.18143547       9.96236006       9.32541036      -0.26099312       0.67971949       0.12792361
C       18.08476145       5.89118995       9.30113872       0.45705437       0.12497014      -0.68497054
C       14.86491235       8.37576521      22.70906705       1.03727916       0.19055065      -0.00541100
C       22.72913011      17.63086961      13.13940467      -0.37741438       0.36165649      -0.38669695
C        0.80327527      14.09390050       5.39011828      -0.93101236       0.28275572      -1.23626237
C       11.18281937       9.91585346      16.45714542      -0.65130010       0.12372767       0.66421054
C        8.59675302      17.70406780       1.78956821      -0.71983403      -0.03877770      -0.18846205
C       10.24910409      12.52268440      11.74169910      -0.75997297       0.06383541      -0.70732205
C       20.87344928      16.28998804      19.09259031      -1.46165246      -0.41164915      -0.80156847
C       17.09208393      16.63781697       0.37751647       0.08844349      -0.01616037       0.51051430
C       12.92570260      10.21926990      21.09912093       0.89758915       0.21840287      -0.92081252
C        6.52571011       8.46208948      11.34925587       0.63571934      -0.05858032      -0.99168488
C        2.00520349       4.62002591       3.66619243      -0.29800453      -0.07018886      -1.30319071
C        0.62737969       7.03803577      21.57171868       0.72701700      -0.08065810      -1.71038711
C        5.62269585      21.37538794       4.83296093       0.24438470      -0.45884731       0.04755123
C       21.82532077      13.71948471       1.41568835      -0.63599315      -0.24173657      -0.79787636
C        1.82903216       2.31781835       1.26950326       0.43373367       0.38135663      -0.19989377
C       17.97883099      15.03971130      17.83507492       0.09174372      -0.11133925      -0.05812909
C       17.00974315      13.13947536       8.63185975       0.46873987      -0.96539697       0.50985292
C       22.21628244       4.99539384      14.89094940       1.48494694      -1.22534820      -0.49677902
C        2.55684593      18.04961520       1.58197146      -0.19987853      -0.15304372      -0.94411542
C        3.77279777       1.81267571      15.72183589      -0.35082296      -2.15743184      -0.37639324
C       21.90908564      10.07152437       9.23859012       0.59136460       0.91800188      -0.83992639
C        1.87430276      22.87087507      21.83787941      -0.74934256      -0.41317275      -0.05235100
C       12.83451798       8.92251176       7.93072477       0.74167861      -0.25966978       0.10447526
C        9.43133481       1.36556855      15.78192869      -0.65116978       0.57198268       0.64275441
C       17.23208097       2.80588505       9.70433913       1.00959274       0.93471915       0.32183892
C       13.14403193       4.38028464       3.59119284      -0.09672802       0.36311878      -0.37350099
C       13.45688797      16.96685612       4.96567389      -0.58504108       0.47015357      -1.90246135
C       13.14969003       1.04426796      11.67601452       0.51013656      -0.69187404      -0.21179993
C        5.48542580      15.55469473      10.62210979      -0.08188354      -0.09205451       0.90064666
C       19.02666047      21.62420894       9.34736269      -0.81883946       0.03626401      -0.11149381
C       17.43983923       7.69755289      21.82242568      -0.80421507       1.64526582      -0.11866294
C        7.54539885      14.69794303       2.65532771      -0.35824748       0.02290443      -1.26159862
C       13.14307258      19.44842299       7.31342805       0.55295789      -0.91231228      -2.25054353
C       14.08021055       9.61352921       5.09190692       0.27264524      -0.06071143      -0.14192452
C        4.75150002       9.20101070      19.49771314      -0.23487772      -0.16944644      -0.51953031
C       19.92348408       5.17338655       0.81189725      -0.87902948       0.55284060      -0.45198749
C        2.94249087      13.27359193      20.00752310       0.25129327       0.65843936      -0.35164347
C        3.76498653      11.96052141      14.55543411       0.29502138      -1.20925478      -0.17824089
C        2.98802716       8.81024389      15.22956600      -0.09021956       0.39953656      -0.05951970
C        0.62583498      16.36393862       7.61687802      -0.39127605       0.09123713       0.13784882
C       15.12391112       0.16307204       3.40626075      -0.46859543       0.69033261      -0.67453891
C        8.47998572      12.04420473       7.51973195       0.93130037       0.77031949       0.43375543
C        8.51760594       1.99027385       8.52283989      -0.18795132      -0.60490668      -0.48771856
C       14.06671033      12.02579582       7.61635696       0.82475004      -0.95417559      -0.44613440
C       14.50628605      17.68343957       1.83400105      -1.20217606       0.05795984      -0.71721980
C       10.50388685      18.16938090       6.01163685      -1.21289194      -0.51573217      -1.04460391
C        5.77687546       5.38495430      12.21160540      -0.72442862      -0.30755157      -1.14119667
C        7.68045115      22.71975265      21.80576760      -1.35688815      -0.13143615       0.28839616
C        2.84031248       9.92058819       5.05442054      -0.79309520      -0.28235988       0.20898800
C       12.11384758      20.94687351      12.24373197       0.87467489       0.25330757       0.59373230
C        1.70493165      11.58980010      10.38972776       0.76340115      -0.84995250      -0.64553875
C        5.35965232      20.28253744      14.85079327      -0.24228132      -0.15767109      -0.94186723
C        7.58668249       2.30444365       1.23672479      -0.46428230      -0.98970912      -0.64974669
C       10.63451928       2.30527744      20.35550796       0.08070443      -0.14386356       0.08652963
C       11.30525635       4.33350179      22.21602263       0.42367113      -0.69302678      -0.43977785
C        9.21562344      14.11976552      16.89117088       0.61522850      -0.65086612       0.20522813
C       16.96566628       3.93087823      22.40350829       0.21547497      -0.12700791       0.25416008
C       21.67074988      20.34226155       8.09245258       0.16582586       0.88049614       0.27640623
C        9.05791463      10.12927185      12.44745086      -0.08707708      -0.34771252      -0.17025256
C       11.23124494      18.67783605       3.07586930       1.17394328       1.13182244      -0.91512677
C       17.78888981       0.13159837      14.55475222      -0.74639732       0.04605430       0.58925326
C       18.93628731       2.17637003       1.36665834      -1.37408665      -0.55981794       1.02779457
C       16.18082645      20.60287864       8.16835056      -0.95019689      -0.80096340       0.60525376
C        4.63111741      13.52597296       1.33765856      -1.53153217       0.88976505      -0.64086822
C       21.66586888      16.17392051       3.54173977      -0.98338344      -0.57704972      -0.79029307
C       11.17171750      17.88916285      13.01264090      -0.36659363      -0.06602492       0.04407850
C        8.53185133      21.10477567      16.53950226      -0.47148574       0.46206914       0.95371148
C       11.31487374      22.25968427      17.69296740       0.09342772      -0.28550947       0.26638505
C       21.74890219       8.03801415       6.92199543       0.90847450      -1.91128695      -0.85472944
C       13.07050778       6.61207034       5.77128795      -0.42626320       0.72738117      -0.05862564
C        3.80144376      22.20181969      13.17493235      -0.36961448       0.05179082       0.50912245
C       18.52117467       8.26456984      10.99254293       0.73277780       0.39617306      -0.62398279
C        5.67454679       1.93089839      19.73159268      -0.56447715      -0.43324620       1.32277310
C        7.28134234      13.83186172      12.63152016       0.49130739      -0.06590897      -0.04532903
C        9.54031206      18.37934573      21.58206815      -0.43583062       0.37576546       0.70580330
C       14.02990014      21.20294122      16.61730467       0.11658929      -0.24618171      -0.31141774
C       14.96571563      14.01580131      17.03421650       0.41505560      -0.35251033      -0.55600187
C        0.62972860      17.38086539      20.31292413       0.24361163       1.36210027       0.14022851
C        6.69913609      20.83425012      12.01933941      -1.35332978       1.23649779       0.19045645
C        2.55654744      22.06215109      16.84108356       0.55619794      -1.00733864      -1.78529906
C       21.79557960       3.32812516       2.61487293       0.12674454       0.17299321      -0.04015037
C       18.87556098       5.41597750      16.55969119       0.58671324      -0.53412499      -1.85529256
C       14.22652918       1.92546435       8.63365926       0.61526515      -0.88669790       0.21818288
C        5.87421474      21.72018484      17.72726505      -0.25611362       0.14964736      -0.20321996
C        9.04441975       2.45310697      20.69217881       1.33109176      -0.38005269      -0.01016480
C        2.94999666       4.47763944      10.85258549       0.67356823      -1.13445556      -0.03758840
C       12.31951447       1.25707167       4.37910413      -0.95430657       0.23617264       0.37993079
C       12.44003308      19.62328730      22.87208482       0.18750841      -0.13697833       0.92506364
C        5.70584999      10.93444260       6.32530284      -1.17050612       1.13219389      -0.64358458
C       14.46248460      15.39492150      22.43224616      -0.31602845       0.40090907       0.44882048
C        5.84797322      10.02422074      16.35186586      -1.08900329      -0.76841219       1.24445773
C       13.74295759       8.81451380      15.68848212       1.06979345       1.21637189      -1.32581887
C        0.31254208       7.86357121      14.14087735       0.13292645      -0.23039933       0.27041136
C        1.85983820       7.83507446      18.36373558       0.64854041      -0.29731693      -0.33141123
C       11.22001964      13.24426146       8.77211100      -0.02341019       0.42010605      -1.29438007
C       17.01829961       6.92031679      14.56152553       0.80542397      -0.15684530      -0.85240273
C        0.39453561      20.28754389      15.09214832      -0.37665939       0.73710142       0.57461111
C       22.76263455       3.98140392      22.41169693       0.05317874       1.01187766      -0.23995863
C       12.33287094       3.62170687       6.69175262      -0.33159658       0.23215631      -0.62533920
C        9.43057121       2.50522095       5.37989108      -0.55241975      -0.35952613      -0.06784430
C       11.23789455      20.16471310      15.37992847      -0.16403338      -1.32467726      -0.38020213
C        6.69906550       0.23586454      14.50164101      -0.82442030       1.74769211       0.51719470
C       19.77389054      17.99359407       1.72400038       0.24558142      -0.75215977      -0.43466218
C       16.86695297      10.32482799      16.39960243      -0.93673107       0.57468832      -0.65742855
C       18.72346746      18.13284936      17.03789888       0.54675120      -0.51616282       0.67546773
C        9.48082274       8.86502026      12.33379589       1.28206429       0.48436636      -0.02779257
C       10.33601333       9.06982100      19.51608592      -0.65682819      -0.00173286       0.77288485
C        6.41932818      18.61127948       9.90025597      -0.40688506       0.66919535      -0.18686062
C       10.99501475      10.82835897       6.04978878       0.75109100      -0.03574872       0.84264562
C       10.28211888       4.35235180      15.16134750       0.63312182       0.98701462      -0.66869780
C        9.17100580      19.75640228      11.06128198       0.96800004       0.44939977      -0.25990237
C       14.26921982      11.37799195      18.32093863       0.23865521      -2.00989473      -0.99488455
C       14.28089150       0.55210037      18.83553757       0.29060525       0.33812444       1.35382284
C        1.08614546      10.74702241      13.35976119      -0.40544459      -0.49885342      -0.69640070
C       19.98205063       1.70813553       8.55953344      -0.41348261      -0.03798896       0.73428409
C        2.74778890      12.09266259       7.21250149       0.05607914       0.47288437      -0.57359137
C       10.48659958       0.77668984       0.19842378      -0.30612298      -0.58064803      -0.63960059
C        4.86098224       0.04452702      10.16758769      -0.95470190       0.13994324       0.20334687
C        4.57187442      15.96399153       3.47425896       0.14787512       0.00424663      -0.24757862
C       21.10914974      11.65317456      14.43742365       0.92820475       0.11934115       0.52035566
C        0.85739228      15.14537027      18.13305179      -0.15439919      -0.49787451      -0.55948721
C       22.21524813       3.46153408      17.35306052      -0.34156936      -0.32831873       0.05596191
C       15.98602805      11.47431054      21.99614949      -0.09145787       1.13522287       0.26944195
C        8.17457433       9.77372333       4.99510614       0.59832846      -0.21164371       0.65771255
C        9.52775550      15.18347282       6.60963033       0.28160845      -0.43739359       0.59092039
C        9.38743909      12.75722249       4.31675823       0.24066741       0.35689423       0.87719855
C        6.49552229      19.63771595      22.56799052       0.79369424       0.69153475       0.57516028
C        5.06892379       4.77361594       4.29082024      -0.52436964       1.12529455      -0.40300617
C        8.40824609      20.14950250       3.94767839       1.08308262      -1.14275590      -0.29150593
C       20.96010702      21.02637900       0.74003399      -0.65172061       1.20406725      -0.09320761
C        5.45204643      13.35146012       8.47548814       0.74204876      -0.92238447      -0.31776247
C       10.23748881       7.61073934       6.95559824      -1.40057334       1.40271232      -1.06706801
C       11.12913564       8.53199011       3.84569719      -0.32660222       0.04704137      -0.00513887
C        1.01743619      22.25599962       1.90333401      -0.53167182       0.74616797      -0.07994103
C       16.99616253       6.22023266       1.72128491      -0.01972605       1.43186900      -0.34345803
C        7.67434543       1.28436432      11.57213394      -0.33400665       0.11829013      -0.46359484
C       17.96686520      21.90492601       2.09385741      -0.67174733       0.20713872       1.04865573
C       20.82559663      15.24816923       6.65530147      -0.29366745      -0.29380216       0.42864229
C       18.91015457       8.91809266       8.14816998       0.72213547       0.50090107       0.18179431
C       16.66095739       9.00574569      16.49151702      -2.11126158      -0.43956673      -0.62054636
C       16.00967649       6.57772639      17.64271979      -0.63102612      -0.21228913      -0.30791080
C       22.61356448      14.64191870      21.11233313      -0.21703056      -0.50090110       0.26864912
C       14.98666902      19.76680527      11.07884502       0.02674998      -0.39411226       1.81414995
C       17.13994732       1.64529223      20.24412215      -0.30171224      -0.70557758      -0.49755907
C        7.45242896      16.03254361      14.82857734      -0.24566993       0.31158580       0.21297470
C        3.93612723      14.20082909      16.94384700      -2.28014559      -0.34813756       0.62178150
C        3.62481600      10.50523864       1.88954122       0.55035698       0.81519577       0.10902892
C       17.11187493      14.39517339      20.98254790       0.13920693      -0.29770313       0.46142226
C        2.91145859       6.67536092      13.19032489       0.52410531      -0.01143704      -0.24975725
C       15.11240684      10.47107361       2.06168101       0.12401145       1.44679376       0.78814961
C        7.84611311       4.57734480       3.18515191      -1.22808412      -0.29062812       1.17634162
C       16.07755811       2.05324161      12.72598177      -0.41815378       0.27021430       0.26068313
C       11.17180212       7.77172147      14.34970031       1.76543093      -0.88089234      -0.82422930
C       22.80168968      10.89083299       6.08877196       0.58384264       0.66939056       2.13352644
C        5.60643506       4.28759946      22.05398171       0.28782814      -0.50641429       0.97563243
C       19.72617922      14.27855632       9.73914092       1.24299565      -0.51223308      -0.50504003
C       10.11236563      13.50810900       1.36040410       1.21040726       0.52869802      -0.08889530
C        5.71303615       0.71910302       7.12708301       0.17062511       0.24534135       1.50126612
C       18.03599437      12.67946227      15.74887920       1.13980451       1.01053540       0.24174380
C       17.03477977      21.39203177       5.29984777      -0.44682591      -0.41352531       0.34292797
C        9.48363431       0.16408713       3.03127744       0.45899814      -0.14559951       0.93684825
C       16.14034696      10.00478231       9.36631610       0.61563784       0.48614390      -0.14054713
C        9.35023580       4.89278233       7.88260517      -0.77866362       0.23592967      -0.44687316
C        1.80161971      20.35869702      19.59572649       0.14777850       0.08716576       0.26407893
C       21.90277476      11.29413315      21.79514142      -0.21689570      -0.09193636       0.36234054
C        1.62807326      15.88497172      15.05423072       0.90614009       0.51005512      -0.39172432
C       21.92321823      21.65195349      20.63222744      -0.77784169       0.14193131       1.12014540
C        7.51579052      10.22641749      20.76306126      -0.60916111      -0.08047163      -0.31039518
C       15.01714685       1.37098410      15.70002815      -0.21677568      -0.12289351       0.76057309
C        4.75098148       2.45612202      12.80159086       0.48675751      -1.24284336      -1.14472979
C        5.64684261       6.44236862       1.46961854      -0.42089345      -0.01078209      -0.19020248
C       20.08541577      13.21700184      19.82869514       0.81834093       0.95686151      -0.60788846
C        9.53775364      20.80712870       0.86123923       0.27193926      -0.04218672       0.37707981
C       18.77607339      14.78791328       2.37404300       0.48421801      -0.05881587       0.24408660
C       16.17959289      21.57909123      20.94836861       0.06243894      -0.08643200      -0.79705268
C        1.43239385      15.09641147       2.47502926       1.30399930      -0.68528479      -1.01043943
C        6.79099147      13.94424862       5.50682136      -1.35504401       0.33782022       0.41288652
C       17.68101442       4.63964059      19.48348791       0.95607331       0.47874799      -0.69030359
C       14.12181126      14.46848031       9.74988540      -0.42152725      -0.34828402      -0.00073437
C        4.56022365      21.45849711      20.64596682       1.15575266       0.48392417       1.22182855
C       15.75112930       9.38644379      19.63208215       0.62425767      -0.66217586       0.71770561
C       10.18353970       5.54843141       4.58605440       0.15259644       0.37136095      -0.00023967
C       20.66275406       2.78423831       5.51153710       0.01627344       0.47343928       0.27227077
C        3.75067226       0.44381878       3.08287187      -0.88898754       0.89355162       0.58054948
C       21.94131406      12.55656254      11.57201699      -0.40765259      -0.54721284      -0.72393307
C        6.66064087      16.14065764       7.66986995      -0.37202208       0.48351271      -0.67576131
C       21.70436336      22.72263882      10.42513797       0.81209886       0.03203394       0.19484873
C        5.76614336      16.66842161       0.63724069      -1.28317672       0.75364169      -0.53172380
C       20.87463945       8.10927952      22.65744336      -0.55771841       0.26795177      -0.21115566
C        0.58892654      18.54846747      10.02385398      -0.51064150      -0.29951224      -1.16866192
C       12.39711402      21.92446643       2.20185346       0.25499390      -0.77757306      -0.74439512
C       16.81873401       5.01069985      12.27157095      -1.27188665      -1.28765837       0.29153024
C       16.81873149      15.40345386      10.95752723       1.21759376       0.33715741      -0.30670269
C        1.72939525      12.47401091       0.10044767       0.36422619       0.44028369       0.68271047
C        0.74841145       9.46588974       0.68710696       0.88031709       0.43806034       0.53421122
C        0.00371220      22.38511634      17.72892343      -0.54833809       0.11053088      -1.13976020
C        5.30215028      22.89210313      17.63299274      -0.38962877       0.94582200       0.56643420
C        3.51715217      20.91146250       0.82235218       1.18755069       0.04533204      -0.58137918
C       22.74965293       0.87439709       7.37347463       1.65597203       0.21828720       2.65835790
C        1.79107527      18.13211171      17.37642596      -0.47605947      -0.25496460      -0.08170268
C       18.68866024       2.95352140      14.15337430      -0.39971557       0.31768459      -0.58835348
C       10.41398721      15.76571926       3.64615641       1.32026210       0.32952088       0.13468745
C        9.37299497      16.14350664      19.30677195      -0.07046522       0.01040712      -0.13280275
C       21.72579755      19.21605118      18.41121993      -0.23980606      -0.40574461      -0.88573884
C        5.46666967       8.72949081       3.75665585       0.51075560      -0.28921279       0.72111058
C       17.97941636      14.13389810       5.64162326      -0.29873857      -0.75341702      -1.07781073
C       14.85006743      12.01069304      14.74352715       0.14123619      -1.11210907       0.24371344
C       20.88848056       3.35346998      18.01063833       0.51486769       0.69563551      -0.14620633
C        6.68212840       3.87528406       6.62860983      -0.02430558      -0.34484375       0.28827091
C       15.16792629       2.46299429       5.65918741      -0.20891658       0.76046413      -0.19208600
C        3.82805567       9.73136473      12.33032280      -0.49661980       0.29462856      -0.10667072
C        6.52798740       6.20883195       8.93789933      -0.95911586      -1.23376694      -0.01471984
C       12.10704343       9.55072973       1.03912694       0.28084615      -1.04766664      -0.94947954
C        3.79421224       6.00652084      20.30225607      -0.70995593       1.46123862      -0.37642491
C       19.02153372      13.58979242      12.73711520      -0.58354214      -1.46111673      -0.40148573
C        2.59900075       0.02401082       6.17089648       0.20848591      -1.53322461       0.34724617
C        3.87964969       4.04395665      17.93330796      -0.34770426      -0.34916969      -0.35078444
C        6.54324661      17.35970330      20.38643063       0.41587124      -0.04947378       0.36917534
C       13.22960691      11.39968332      10.67566916      -0.47036900      -0.11947381      -0.47996600
C       17.78909704      16.24026519       7.74800937       0.72366011      -0.06399485       0.41919246
C        7.66880423      20.34426719      19.63701825      -0.97720498       0.22586358      -0.33830426
C        9.46052653       3.83494477      17.99026073      -0.16845500      -0.09424259       0.18419211
C        2.93816798       2.03067120       8.65296410      -0.71180175      -0.30011408      -2.13667631
C        5.80352059       7.83817400      14.37423783      -1.25343294      -1.37888777      -0.79353645
C       13.11038009       5.56354625      16.31069713      -0.74258459      -0.24660912      -0.24074948
C       13.27320582       1.96736232       1.24938376      -0.32696792       0.55344334       1.08873774
C       18.38650756      10.47215407      13.45750519       0.63933183       0.95795330      -0.84350367
C       19.88849772      20.23593228       4.16093873      -0.92704576      -0.48421377      -0.82573786
C       21.85048048       5.77111984       4.49963044       0.16940088       0.19759040       1.47188917
C        8.39289618       5.36430351       0.19186889       0.20518936       0.49891812       0.25546035
C        6.44972473      11.77433815       3.05666009      -0.22449229      -1.00268537       0.63282411
C        0.89625235       0.64738426      14.60522219       1.05364084      -0.57070999      -0.13081512
C        4.71213916      18.04578826       5.54067918       0.22473885       0.07950220       0.23699769
C       21.11389465       1.98639404      13.01885304       0.13332725      -0.19397539       0.09975921
C       21.79567886       8.92105769      19.61010476      -0.00089973      -0.70160726      -0.66767076
C       19.58778011      18.70316748      14.21138504       0.51259972       1.21802032      -0.39551982
C        4.55439873       3.54785639       1.99353171      -0.28438312      -0.70182690      -1.12967336
C       18.44092863       7.74435304      18.56518885       0.20047939       0.20741300       1.38671056
C       18.67618459       4.44257689       3.81272473      -0.39025943      -0.22441056      -0.06852900
C        0.47539010       3.25634285       9.53102109      -1.04770246       0.46842414      -0.15523380
C       18.85084366       0.80097771      11.63766547       1.05468553       1.17638546       0.19551042
C       22.59584591      16.84725466       0.44396195      -0.66594869       0.16611774      -0.13059626
C        1.79750417       1.10747400      11.44068224       0.16137442       0.40372026       0.45902103
C        8.54748589       6.41848212      13.11083422      -0.00492419      -0.51459371       1.07497978
C        8.62197428       8.83775809      15.41940458      -1.07887903      -0.94648951      -0.85774581
C       14.11554076       7.54057707       2.75305280       0.52496599      -1.25668854       0.17433996
C       15.18988399      16.29891382      19.27850485      -0.31946824      -0.76723593      -0.49745555
C        7.34108641       8.97809380       8.15654245       0.60670066       0.13189499       0.37467025
C       12.26140772      18.60500499      10.09511738       0.00367016      -0.07435808       0.89961714
C       12.05634637      13.04734308      15.83367397       0.25865731      -0.66982836      -0.33199203
C       21.04177190      10.80452134       1.93932558      -0.26953719      -1.81723154       0.97813040
C       16.81672326      20.05726647      15.23960020       0.24306014      -0.05254377       0.28047255
C        9.24772145       7.17762995       9.94483216       0.14800769      -0.69551547       1.24929428
C       10.14037845      17.16973138      16.22215918       0.53839172      -0.64990161      -0.57759373
C       12.11807518       8.02919159      11.15200948      -0.06108910       1.96094638       0.18679669
C       10.46270582      21.36429736      20.71915148      -0.22526928      -0.34180446       0.37286749
C        9.25112769      11.80060700      14.57731087       0.51795059       1.00860271       0.15532861
C        2.95863696      11.00243206      17.68785432       0.45680709      -0.59319210      -0.24326547
C       18.89416098       8.68401418      15.56776281       1.60281217       0.26257974      -0.62215218
Hf      14.68007960       6.89865360       7.93944443       6.55025864      -0.68439166       1.98932205
Hf      12.16158643       6.48405882       3.63732390      -0.38263968      -1.66875225       0.65204704
Hf      18.95911169      15.27639280      19.81005664       0.28179722       1.39008071       1.80080003
Hf       6.37227691       8.79145506       6.19687489       0.64841697       0.12394234      -1.70628387
Hf      10.25893640      17.57068824      10.95553678      -0.02632360       2.35471982      -0.69303763
Hf      17.94563142       6.73469245       3.75167632       0.36676429      -1.37067869       0.48235863
Hf       1.90699469       6.49488083      11.12343299       1.00802768      -0.38580474      -1.34202197
Hf       1.08796791       6.66969323       3.61924237      -1.09350026       0.07274041      -0.37400462
Hf       3.71317816      13.43223605      22.16323835      -0.12770757       0.97666292      -1.32300270
Hf       9.43647549       2.69554457       0.33756773       2.02069203       4.02113324      -1.73766148
Hf       2.46974762      13.06539831       2.05668057       0.97425377      -1.30972952       2.50485197
Hf       3.39960344       1.27429978      20.97040391     -11.26479822      14.21949273      17.14948088
Hf       6.64265256       6.79165487       3.57086563      -2.09116882      -1.51479679      -0.84601202
Hf      11.30558075       3.25215764       4.60311742       0.36106952       2.02627593      -1.39859888
Hf      11.35070362      18.29473065       8.07185451      -1.11236703       2.36136204       0.67454600
Hf      12.06053769      21.35453453       7.44036280       2.33833367       1.98989618      -0.96361956
Hf      11.46428464      19.29335555      21.03989522      -0.60247320       0.75637332      -3.68093812
Hf      17.72021671       9.92717301      18.50831061       1.11861265       0.49904181       1.17406553
Hf      19.63909904      22.81746910       1.16432368       2.41415936       2.23987496      -0.21414222
Hf       9.48199302       5.57408051       2.14334632      -0.85389623      -1.25682536       2.26202929
Hf       4.01850258      20.05603276       5.48141823      -2.99038363       2.95638621       3.47673523
Hf       7.48849241       6.28235911      11.20929774      -0.73352066       0.60676031      -0.69829530
Hf      14.97408671       5.35745613       2.54254692       0.61186449       0.29221717       2.21856782
Hf      10.47136944      16.24150142      21.34837788      -1.07634474       1.47743446       1.40278837
Hf       3.45123368      12.55285463       9.21062348       1.01582479      -1.43476021       2.05252796
Hf      12.67377900      16.77915878       2.84874364      -2.29785889       0.47857382      -0.68494844
Hf       2.85301843       1.38164770      13.45011234      -0.35330282       1.11064930       0.52348789
Hf       6.65621179       1.04556944       9.25127169       0.60308807      -0.93107052       0.89724859
Hf      21.58741975       0.83263483       5.70734420      -8.42336565      -4.30168471       8.16033769
Hf       5.62391152       7.24138360      19.24864755       0.16097622      -2.61572945       0.30265343
Hf       7.31107679      16.60702496       9.82008974       1.54207784      -2.31280428      -1.31299040
Hf      11.13067227      15.13857918      15.94999608      -0.69784527      -1.94321766       0.59120740
Hf      14.07846372       4.67014556       5.64382130       1.31751755      -0.30439920       0.07793017
Hf      20.87445450      12.17079893       9.50662643      -0.17408368       0.32131192      -0.91056928
Hf      20.66607001       8.81563095      17.55834230      -1.00872444      -3.15784144      -2.25525761
Hf      20.42848670      20.94656401      18.35335202       4.71573013       3.20346677       1.30204150
Hf      10.20883198      12.08321447      16.80548128       1.02262925      -0.93181998      -1.04528874
Hf       2.05468639      21.46593185      14.42404817      -2.25338799      -1.78454924      -0.56105432
Hf      15.80261532      10.70283163       4.15904967       3.05012774       1.31507801       0.55613201
Hf      15.24087478      18.29122681       3.94446821      -0.18796920      -4.52138114      -1.03405827
Hf      17.36440728      10.20165894      11.42359989      -1.08590114       0.28918225       1.04167682
Hf      21.36597325      17.32975127      11.20229781       1.81505960       2.60328460       0.22408415
Hf       0.61185145      19.87139178       4.55730797       1.67014763       0.44507205      -2.32925141
Hf      13.04816881      21.15025191      14.32359052       1.66852018      -0.74050087       0.41731988
Hf       1.27408253       9.83793322      18.71949125      -1.30018955       2.39120275      -1.87744892
Hf      16.97930523       1.12898970       2.50186838      -0.19263688       0.07371123      -1.60428095
Hf      10.44939256      18.66194717       0.84506601       0.03543237      -1.20007998       0.80465269
Hf       3.70586295      16.10023506       1.31107194      -1.29252443      -2.02412131       1.28175610
Hf      14.94319439      19.13166297      16.26785660      -0.23970006       0.29581219      -0.45487927
Hf       4.79635719      22.33245096      15.14357590      -0.60014567       2.03089917       3.67076349
Hf      12.26251741       1.74317996      22.11694065       0.87771583       0.45350614      -0.49610448
Hf      12.10354292      22.15429973      19.71071964       2.38262546       2.73630100       0.39840385
Hf      14.23115150      19.60830586       9.07581282      -0.85770714       0.83139866       2.34389669
Hf       0.53754498      14.84411749       0.38954319       0.88133976      -0.75397147      -0.41649434
Hf      12.15086182      10.17863202      18.99177506      -0.45843369      -0.80892418      -1.15424266
Hf      19.53429988      17.12409734       6.86858753       2.77860928       1.84658119       0.86985165
Hf       1.09865775       3.49500484      11.78211124       0.33853418      -1.95051801      -0.27806648
Hf      11.61313545      16.00012153       5.71580752      -2.00373894       0.27472100       1.45176917
Hf       5.54179864      17.25111082      18.27797987       0.80862664      -0.38245778       0.50889614
Hf       9.60601005       6.64154170      15.21497614      -2.03002891      -1.06965628      -0.82496601
Hf      18.36554696      12.44995520      20.74939400      -2.63999170      -2.05770087       1.14048947
Hf      13.10887742       9.42867600       3.04917732      -0.63035992       2.77577329      -0.12311327
Hf      14.17433996      17.41756022       6.92406120       1.17850913      -2.68831086       1.37619080
Hf      18.90304240      17.74686605      22.21078924       1.77118963      -0.53015211       0.94791526
Hf       8.41262856      22.09549033      11.19075622       1.24943200      -1.34434921       0.21868660
Hf       7.55365010      20.03143265       1.72623599      -1.10741657      -1.55953020       0.49324250
Hf      13.29101658       0.43579127      16.88646992      -0.37541784      -0.32491942      -0.44735949
Hf      22.06354030       8.33075195       1.83741623      -2.95749980       0.59812821      -2.46158522
Hf      18.57824868       5.99600022      12.11645094       4.79312477       0.31229958      -6.54455298
Hf       0.87600068      22.47504038      19.93671759       1.76039281       0.63897729      -3.82806480
Hf       6.86427800       7.63671048      16.36718789      -1.99593982       1.72632933      -2.71259743
Hf      12.20476443      11.36260710       8.69460401      -2.04400253      -2.32433420      -4.86023073
Hf      16.24751116       8.63470791       1.73814128      -0.13557900      -1.77166831       0.06005043
Hf      19.81755396       6.81753623       8.27460394       0.69944400       1.72974959      -1.60787791
Hf       2.86302865      13.99873166      14.81804545      -1.54947564      -0.47901440       0.00294393
Hf      15.79920318       5.89481637      22.60041895       2.79348528       2.25444555      -0.19813749
Hf       7.56468867      17.52759988      22.44985936       0.79327590      -0.01551509       1.40811077
Hf      17.98411068      19.35915552       5.25535101      -0.85240114      -1.05111629      -2.20872211
Hf       9.99615246      10.59947349       4.11498301       2.21564567       0.46879944      -0.19220957
Hf       4.56456689       4.01207845      20.08690730       2.76226383       1.74157771       0.11430177
Hf      11.95179450      17.97922811      15.12083241       1.51933759       0.94843782       0.15361044
Hf      15.26671262      21.28180598      18.81393134      -0.77942544       1.21921629      -1.36014864
Hf      15.52078988       1.91261100      10.60995934      -3.65040714       1.79070377       0.83741185
Hf       4.78003028      12.20555343      16.78391556       0.61228858      -3.29571354      -1.30419847
Hf       3.95879101       2.37684474      10.52319053      -0.30481265      -2.27349359       2.48267055
Hf      19.99126042      10.25776639      22.65854441       0.70367306       0.83803660       1.25776176
Hf       0.39323106      17.21350961       2.56548326       2.24156129       0.04231578      -0.09732465
Hf       4.80680373      16.59301672      21.43602796      -2.04274017      -2.61046726      -1.97028571
Hf       4.80530980       2.83557801       7.59961686      -0.52889156       1.26501268      -0.00685984
Hf      10.46535144      20.89458772       2.95855279      -0.61921029       0.28019512       1.58103001
Hf      16.24094437       4.93159011      10.02724246      -0.65956913       0.31526157       0.41953866
Hf       7.57721187       0.26939224      16.96098050      -0.29685548       0.68318249      -3.67643559
Hf      11.58036422      13.58917355       3.79844394      -1.89256066       0.87564616      -2.80826992
Hf      22.84732204       7.03677540      19.41369288      -2.88336831      -3.48301125      -1.94109946
Hf       6.67573540       4.30449772       1.35733879      -0.13932911       2.11329696      -1.19077477
Hf      14.38254645      20.53846588      21.80894214      -1.96028495       0.58591732       0.24100456
Hf      20.75464376       3.20782633       0.70865413       2.56401938      -3.24498540      -2.46803534
Hf      20.42276842       5.09568061       2.98881657       4.59206784       3.83366179      -1.77736655
Hf       3.71460734      18.96280682      16.42051967      -0.47891829       1.36603558       0.60191751
Hf      17.62339047      11.55675442       1.31090963      -4.48193455       0.51660363      -2.91523653
Nb       5.48301659      19.45488350      20.67799498       1.15170909      -0.20299107      -2.28484482
Nb      21.91567028      20.31158396      12.87562929      -1.15490961      -0.89748091       1.53645140
Nb       4.00136033      11.16426759      19.82352127      -1.95927447       0.45226197      -1.06609091
Nb       2.99422716       2.48512296       3.54925283      -1.26939268       2.53773993      -1.59635648
Nb      16.95499240       3.60623976       4.60614518      -1.50839825      -0.46982366       0.47214144
Nb      15.13960300      11.91954682       9.59571928       0.39193974       2.92541933       1.19656825
Nb      19.22385630       5.69829986      18.61108176       0.62962758      -2.78234538       1.71206804
Nb      15.16367759       2.96231692       0.47246271      -0.54231831      -0.65339249      -0.90147603
Nb       0.87820413       2.11159002      21.89245493      -0.48124683      -0.86480388       2.67573303
Nb      15.27687004       7.81191308       4.61020202      -1.44558224      -1.87710825       2.40803879
Nb      19.06908646       7.19237358       0.87637203      -0.07924880       1.35643844      -0.45608466
Nb      22.75974801      14.73690079      16.09888251       1.62105189       0.77057481      -2.01613283
Nb      19.06121583       4.80080400      21.81228248      -2.07599935       0.63116744      -3.09240341
Nb      22.76365821       9.07007860      21.59101329      -0.83776304       0.01874518       1.63654417
Nb      16.59052127       9.62457132      21.57574742       0.39032160      -2.49715692       0.09064722
Nb       5.67158893      20.80047798       9.83660645      -1.26788300       1.82094628       1.98905957
Nb       0.49057615       1.00853994       9.51018611       3.28109950      -1.14458609       0.81517941
Nb       6.42356540      15.89636721      12.86352811       0.06202126      -0.48582666      -0.73393975
Nb      16.17344543      14.16522254      18.87473115       0.60338182       2.22416003       1.09140889
Nb      16.98524101       7.95879574       9.11193295       2.46398428       1.06513834       0.66315624
Nb      21.64448108      16.53297939      21.07566904      -0.35648897       0.52073029       1.36383593
Nb      19.63610256       0.93350993      13.97256139       0.55164116       1.14238237      -1.56560740
Nb      13.10682337      18.80320325      12.25309116      -0.66884716      -0.10056809      -1.50491810
Nb       8.05417040      19.58393657       9.03807419       4.63613427       0.09635893      -1.41051295
Nb      15.69677243       7.28553051      12.58040435       2.20038229      -1.26415780      -1.39450537
Nb       1.58340221      20.10258899       1.53504533       2.18735021      -0.12079697       2.55547446
Nb       8.41860093       3.47072482      15.96001466       0.12202901      -0.06663644       0.43943762
Nb      16.18190850      12.21834493      16.86351076      -0.69948551      -1.28952475      -1.15725563
Nb       7.58393384      22.12515289       3.92783995      -0.54769047       1.63176894       0.16788550
Nb      12.26607568       3.99865320       1.17281829      -0.98449204       0.70778263       3.28893167
Nb      14.70528025       6.12145048      15.25035821      -1.68105412      -7.90943667      -3.00565482
Nb      13.43832598      19.91255855       1.92658784      -0.84730524      -1.20933130      -0.21771301
Nb       6.67004511      18.99306736       4.60987947      -0.36507574       0.08433510       1.62272221
Nb      21.72817503      19.34526034      13.72651567      -2.22864105       0.47568810      -0.72954139
Nb       4.73795272      18.78408064       0.47721727      -0.85756218       1.22471631       3.60364640
Nb      10.33850353      13.11776860       6.55377333       1.07454675      -0.85147920       0.25616093
Nb      13.40688192       3.94108880       8.60954819      -1.47083026      -0.58581296       2.48777330
Nb      22.47071402      16.22627993       5.40538737       2.72623870       0.42831041       3.75907838
Nb       9.55389388      17.76238828       3.98065237       0.09386498       1.13709566      -1.93627119
Nb      10.86156918       5.64988042       6.64375869       2.12071085       0.33452812       0.51189516
Nb       3.80888538       3.26920498       0.20482966      -1.03419665       0.56151155      -0.85985561
Nb      18.11393686       8.63801780       6.22411780       0.18606713       2.33180493      -1.56284288
Nb      14.16160744       3.30154287      16.07033494      -0.56773547       0.85255009       0.21964280
Nb       2.88701085      19.80535662       8.89605189      -1.10310951       0.36145917      -0.75766984
Nb      22.60049980      19.52438840      20.35149921       0.73540266      -0.28287908       0.32228981
Nb       7.49034790       8.62556143      13.46773604       0.40417494      -0.35319053      -1.38269812
Nb       8.38743303       6.05406846      18.12038349       2.35155511      -2.23524994       1.18938032
Nb      17.89220980      16.85934355       2.51411113       0.45190603       0.93514258       1.35125417
Nb      14.72686712       9.13331519      10.62919622      -4.08250678       0.23173154      -1.11331614
Nb       9.42791195      20.19804993       5.99579097      -0.71439976       0.83171497       0.56061701
Nb       2.67453776      16.16510953      17.33407129      -0.05562297      -0.93620590      -1.84566882
Nb      19.26183398      12.98787973      17.71650890      -1.58171803      -0.59546595       0.16729396
Nb      21.51691686      15.21128568       8.90525682       0.19836495       0.19599076      -2.68050277
Nb      20.62958293      18.28977463       3.91709597       0.11592426      -1.19786085      -0.71690115
Nb       7.53405075      10.97527778      15.57023876       1.25818586       0.02218392      -1.25335646
Nb      12.34947289       3.07235027      11.83468334      -0.68412937       0.93598449      -0.65197471
Nb       8.63784557      14.81929363       4.38473205      -0.83030558       0.44890924       1.94944143
Nb       8.57069368       9.18287894      10.35584668      -3.74453598       0.17102759      -0.52592093
Nb       1.97044107       1.01338916      16.61923984      -1.38924256       0.99048838       0.13599333
Nb       1.67167897      15.50365904      20.35492182       1.20199698       0.24841092      -1.22266948
Nb       8.17431470      14.04225501      14.64591675       2.68774873      -0.81950927       0.25226225
Nb       4.85534537       9.90291083      14.37123926      -0.92547842       0.06037538       0.20674984
Nb      17.83565212       4.24932130       1.60976682      -0.16583572      -0.33753166       0.12013370
Nb      22.82869987      22.06406272      22.54649941      -0.09511545      -1.01568229       2.22449201
Nb      14.10978090      10.43513265       0.25796734      -0.97158130       0.23986269      -2.27094495
Nb      19.62760496       8.66896433      13.02157061      -1.77889800       1.20970821       0.25466985
Nb       3.76356284      21.31594251      18.71861104      -0.33577137      -2.53583930      -2.20098048
Nb      19.90851766      21.60067180      11.48143293      -1.60501364       2.63237050      -1.12990498
Nb      18.87237730      19.81376998       1.98695108      -0.78830701       1.36096278       0.08419477
Nb      13.97027260      11.61794269      12.72458968       2.21383923      -0.61342755      -0.20725875
Nb       5.53197340      12.88822719      13.66110232       0.39751351      -0.71583563      -0.46611199
Nb       4.75931019      13.16963116       6.35965003      -0.36393175      -1.45909218       0.12308194
Nb      21.95017886       5.21207120       9.82692549       1.23488116       0.16353992       0.50328378
Nb      14.93396757       3.98258812      12.94374749       2.14152426       1.51774964      -0.70122209
Nb      19.63245673       4.59508367       5.90976700       2.07408670       0.85880360      -0.81526047
Nb      21.62132610       5.91004262      22.45958295       1.89144623       3.11674857       0.67863368
Nb       0.61735299      17.85018339      15.21216513       0.17155078      -2.60156310       0.56860167
Nb       8.68545941      17.22177164       6.72241396      -1.99393213      -0.14922132       1.27124126
Nb      10.43220225       0.26875332       5.15671787      -0.36435793       0.62643999       0.71897975
Nb      19.24639622       3.67455204       9.11610641      -1.75826582       1.44326630      -1.43602189
Nb      12.03138205       8.50395358       5.79862249       0.08708693       1.87646784       2.07589716
Nb      13.16427346      22.07521370       4.24188936       0.40699740       1.33678761       0.85628830
Nb       8.43393762       8.11702404      20.36475797       1.08118747       2.05355066      -0.02590908
Nb       9.36711124      14.68434945      11.69675979      -1.56263161      -1.07230762       0.31389406
Nb      18.50870422      21.02981450      14.22014757       2.38813299      -0.01631384       3.79517609
Nb       5.40938223       9.15958439      21.55973911       2.09845889       1.55791101       1.02099840
Nb      11.51297197       0.96273412       2.38692415      -2.00552881       1.29361317      -1.70689097
Nb      19.54596230       2.47352091       3.53224413       1.50298536      -2.68278942       0.63723192
Nb       3.49629398      18.22284799       3.50308994       0.64096876      -0.50351302      -0.75220610
Nb       3.66103973       0.03725930       8.18181769       0.17240213      -1.29514515       1.07688665
Nb       5.34874641      11.46760857       0.93462080       1.53452218      -0.96315843       3.00573695
Nb       7.20003458       5.36767904      20.96575638       2.50210363      -1.76884992       1.93769401
Nb      11.21496305      12.87633574      13.70185531      -2.10933286      -2.10735023       1.00146316
Nb      13.35489678      13.97156509       7.74215655      -1.36713377       2.32300308       0.26666258
Nb      17.01211255       0.00554876      12.44290733      -0.63751982       0.39816254       1.27865389
Nb      20.11405492      20.99024602      21.57094150      -0.63533754      -3.57217890       1.31862648
Nb       5.55609259      10.58356226      11.29270695       0.45503151      -1.20421702       0.77494666
Nb      13.10044755       7.38044329       0.83050466       0.34285659      -0.07544331      -1.18378383
Nb      10.22541123       5.24540178       9.95311462       0.64021680      -3.99151635      -0.46246487
Nb       8.33356550      16.00979295      17.08151019       0.57269326       2.20451903       0.04369164
Ta       5.48854338       2.63646160      14.81129077       2.55543756      -0.91646147      -0.34604756
Ta       1.28580741       5.93975211      14.23434715      -1.02448596      -1.81142390      -3.33616152
Ta       2.61100012      15.45433236       4.20243572       0.30700134      -2.69441772       1.20174396
Ta      16.56260111       1.21905501      18.25633949      -4.41341269       1.15438619      -1.25427078
Ta       9.57464693      15.67336142       1.56897348      -0.90339959       0.09620909      -0.09518918
Ta      20.81546336       0.81741072      20.90544821       1.49326101       0.30627710       2.32994372
Ta      20.79786488      20.57114067       6.06684232       0.58441153      -1.64333719       1.05872288
Ta       9.46378924      21.10578128      18.56694026      -0.37539963       1.43195540       0.16361481
Ta       3.81911892      14.74983757      11.77460256      -1.09231892      -0.17426313      -0.50622863
Ta      20.80574840       1.59504222      10.88057285      -1.74972469       3.33851087      -1.21856485
Ta      13.61822851      17.21946772      22.78878794      -1.81867552       2.61501527      -0.10480665
Ta       1.81827097       1.95682984       6.52008896       0.33494092       0.06690677      -0.07778735
Ta      12.04579615      12.38126953      21.20393230       1.93486175      -1.81264132      -0.74791154
Ta      22.66758713      13.87425958       3.51528265       1.16577822       0.05339791      -1.58895952
Ta      13.12552511      13.21336415      18.26377177      -0.97823877      -0.47506407      -2.29514456
Ta       1.92298109      10.71440812      15.23610651       2.00799721       1.83201292       2.39393586
Ta      16.14215955      17.75400958      11.06722767      -1.57224798      -2.50257879      -2.61875317
Ta      22.20037329      18.15803046       8.09262925       2.43951660       0.72405165      -0.24448547
Ta      22.82893728       7.90082703       8.69780369      -0.06355901       3.31800270       2.09240419
Ta       4.41990840      21.42116564       2.81162391       2.05189216      -2.45006430       0.10790831
Ta      17.03994109      16.09469172       5.47778640       0.66736753       0.38133162       3.33488363
Ta      19.68750074      18.25910589      18.98681172       0.78761366       0.09508817       2.50635856
Ta      22.02438573       9.71974530      14.15134959       1.81113565       0.71190207       1.87984353
Ta      18.67395685      19.02538427      12.26026361       1.85922050      -3.10978109      -1.86558507
Ta      10.21575456       8.54928966       1.73200564       0.08846816      -0.37272586       0.99502689
Ta       7.54135159      13.22745038      17.94194624      -1.78382567      -2.17575517      -1.03613567
Ta       8.31628603      12.53279124       2.20630190       0.12775355       0.23874283       1.01060084
Ta      18.74351053       1.56844340       6.63563412       2.23450190       0.50196260      -1.36050349
Ta       2.54696985      21.89446876      11.26661432       1.77584308       2.10005897      -0.72318646
Ta       9.22328697      17.16140228      13.69813810      -0.57075819      -2.18082923       3.35235500
Ta      16.98456333      21.54423842       0.20023646       0.46671472       1.70926166      -1.42189947
Ta       7.76499651      12.10313931       5.61430738      -2.79069310      -2.24577582      -2.28373659
Ta      18.13804203       1.98710401      22.19032697      -1.51112026      -0.90982296       0.78156465
Ta       8.22156215       4.79833989       5.16645277       1.74235627      -0.99636143       2.12581891
Ta      10.97339160       7.77081540       8.90897872       1.87605476       2.96263856       0.68794313
Ta      17.79425484      15.32881912      12.96868702       0.67896327       1.46303278      -0.78637215
Ta      13.40656392       1.64965294       6.74713212      -1.61362568      -1.27175850      -2.52271551
Ta      18.18075094      22.29790730      20.09964807      -2.97707701       1.69316438      -2.20595208
Ta       7.38299604       7.42977620       0.39387465      -0.32744855      -1.76386413       1.69804564
Ta       2.99183983       6.07378178      17.85826477       1.21123399      -0.37018938       3.90188116
Ta      14.76705151      16.46157202      14.09553209       1.97967279       3.24107963       0.39387643
Ta      19.40496486      10.96414280      15.33281995      -2.13801134      -3.83091247       2.05107433
Ta      12.15234493      20.11932886      17.29101570       0.76268385       1.30027351       1.34099621
Ta      20.35929032       9.21504317      10.31179768      -2.46384919       1.51511532      -2.57726499
Ta       4.71088581       1.96206695      17.76065891       0.57957737      -0.50006419      -0.47217053
Ta      11.68545922      21.68108455       0.20928913      -2.18013704       0.54472987      -1.49253173
Ta      10.98448143      11.57376665       1.01174239       1.63746762      -1.10864884       2.33397341
Ta      16.30037826       2.74251783       7.57107888      -2.09737647       0.93219675       0.98929702
Ta      14.75062860       9.30907403      17.75852088       1.02816033      -2.62276088       0.64138040
Ta       2.16690085       3.26754030      18.80816667      -3.47732776      -1.91349280       0.51418903
Ta      14.95110481       0.78022924      20.88923446       1.29973447      -0.45751737       1.29461288
Ta       9.38015229      12.19229177       9.69665935      -1.01769778       0.63497356      -0.38655895
Ta       7.73469149       1.43112904       6.15056217      -0.38483153       0.68623844       1.40331379
Ta      20.14087585      12.66999745       2.40166326      -0.71680868       1.38835230      -2.22714388
Ta      17.93265074      14.69405592       0.07902599       1.96178210      -1.45863131       1.45875973
Ta       8.09266907      10.10482856      22.87141196       1.79000697       3.61425710      -0.45743018
Ta      13.43324584      16.62182572      10.01262451      -1.57838899      -0.70510657      -1.22452334
Ta      19.52083615       9.75275898       3.15653401      -4.81480050      -1.39893287      -3.70196187
Ta      19.68158738      19.59964298       9.19316626       0.22267140      -0.95066704       0.01642428
Ta      18.21465960       0.77954524       9.49825873      -0.62694899      -0.21730694       0.74189574
Ta       1.27243455      17.89032060      22.39625247       5.11930120      -3.45919955       0.12257782
Ta       2.44300273      18.22701500      19.51540763       1.71374816       1.37463778      -0.61521718
Ta      22.45721155      11.48895080      16.79594373      -2.91878468       4.73084319      -1.29798314
Ta       7.53356662      15.05748705      20.28017366      -1.80086678       2.56821382       1.10184744
Ta       6.35300317      21.47378094       6.83134519       2.11063433       0.64386019       1.06813699
Ta      14.25108916      12.78402296       2.19843641       1.32446984      -1.77075768       1.64222264
Ta       3.62495805       7.92657308       4.59636638       1.77086627      -1.17877275       0.55112256
Ta      22.02488216       1.45495547      18.00761107      -0.92658836      -0.19892558      -0.40344667
Ta       4.68807972      14.30178519      19.02921146       0.28661552      -0.08652045       1.36834541
Ta      13.98490690       8.22598933      20.66604799       0.49225163       0.36816837       0.43138270
Ta      22.16703858      21.67281267       2.40544308      -4.12668368      -3.06639951       4.08312273
Ta       5.26843678      13.51288285       3.26606230       2.69284564       3.36904716       0.96848135
Ta      11.40273018      17.26036280      18.33310340      -1.70464826      -1.69307339       0.19278800
Ta       0.90193911      11.77238348      21.21662755      -0.45835750       2.62002945      -0.17427148
Ta      14.43930566      14.91364281       4.73214058      -1.30123842      -0.82686853      -0.66301180
Ta      13.13911582       2.99327737      19.04264082       0.71985629      -1.97665620       1.61182371
Ta       7.27827373       9.62201112       2.95155847      -0.08979735       0.71622646      -0.25510332
Ta      16.92641675      18.22200174       8.02328481       0.75043595       1.68214869       0.28032161
Ta      16.18460702       3.55767653      20.33978536      -1.71833706       0.80385917       0.19257618
Ta       6.65928449      10.02844413      18.35856572       0.69719349       1.72794521       1.98469520
Ta      22.59105776       5.98137126       6.38766246       1.74787694       0.32467683       3.36230117
Ta       1.57275975      14.49368162       7.19794151       0.56417583      -0.95588839       2.73563951
Ta      16.22845456      16.32322467      21.17196823      -0.93199226       0.99237438       0.09919745
Ta       0.07948029       1.50466877       2.20184736      -0.24801785       0.98685353      -2.18584426
Ta       7.90477911      14.28525658       7.70380736      -3.13462687       0.14790061      -0.37358101
Ta      14.29177124      22.89099111       1.34471747      -0.25838725       0.27734649      -1.21566498
Ta       9.43488882       0.33912440      20.83407584       0.05967352       3.14204031      -0.38376912
Ta       2.70169932      20.46946459      21.72292758       0.19106129       2.16868746      -1.20007855
Ta       1.53686970       4.91707449      21.42204992       0.93637571       3.23376667      -0.76278330
Ta       5.57387112       5.74438841       6.72107739      -0.04200203       1.74361688      -0.02719220
Ta      11.28024461       9.21988273      21.98465781      -0.98915135       0.20575807      -1.96812797
Ta      12.35707201       0.90648577       9.68620409      -0.40918052      -0.16524561      -0.85029170
Ta      11.40000381       6.92268509      19.12855659      -1.70022291       1.74503940       2.21142280
Ta      16.71483513       2.10627008      14.66436731       2.04537126       0.66114976       1.30357835
Ta       6.41380864      12.13864021      21.19513258       1.70440987       0.91090751      -2.74584347
Ta      11.01345623      20.79874709      10.34385179       2.15686792      -1.61933634      -1.40931074
Ta       0.21242274      12.73420777      13.41481891      -1.74931091       0.42853408       1.40554693
Ta       9.13688972      19.10311320      16.27335646       0.81003129      -0.34683248      -0.99297417
Ta       4.76269129      20.08953520      12.87296605      -0.44452251       0.53636251      -1.34718747
Ta       7.41381167       4.23563681       8.84010708       1.31996867      -1.91264105      -1.15358606
Ti      14.01199600       1.21017423      13.67291699       0.50392316      -1.01443303      -0.16873710
Ti       1.74012604      22.80966408       4.01476058       1.26037576      -2.81925917       0.81920703
Ti       0.54370407       5.06209731      17.01294279       0.65848637       0.18722695      -0.18622618
Ti      16.06719400       0.39271061       5.42950916      -0.26692240       0.78588736       0.00031833
Ti      19.55209203       2.99463043      16.21536579      -0.56895967      -0.88482720      -0.75814965
Ti      21.29588711      21.91915215      15.43851524      -1.06188090      -1.61762992       2.27755572
Ti       8.08728405      11.83648340      12.54336043       2.43065596      -0.99262512      -0.24669841
Ti      11.25512806       0.18319638      12.46304530      -0.26425311      -0.14334032       0.97552950
Ti      14.03227084      21.82113058      11.55890452       0.00274107       0.67861469      -1.57155171
Ti       8.28993000       1.29847240      13.60113989       2.24074942       0.19463454       1.63630131
Ti      16.70269157       6.84375369      19.71220429       1.43768629       0.55861326      -1.34145765
Ti      18.62498613      14.14082341       7.65523729       2.99748892      -0.01074576      -0.25774452
Ti       2.63012888       4.87723324       5.61376838       1.82975835      -0.60463044       0.67337335
Ti      17.88801537      21.58420700       7.48995860       0.86143917      -0.92218000      -1.74331880
Ti       0.60372745      18.98296092       5.35544887       0.66742015      -1.10992959       1.07604343
Ti       2.03316096       8.75915490      13.16707215      -0.73232117      -0.20740846       1.09610480
Ti       3.00014974      11.93529486      12.34410072      -1.98424125      -2.60526532       0.80291694
Ti       4.74569336       6.22094576      22.35335793      -1.36353534      -0.44358283      -0.57775562
Ti       6.57030508       5.32935616      14.08428257       1.94248188       1.24855873       0.70563644
Ti      21.58983544       4.75203779      12.77217893      -1.50880176      -0.27346039       1.21665344
Ti       5.85779197       4.85342341      17.12178198      -1.64847675      -0.99602219      -0.67670622
Ti       8.25705263       6.84505421       8.02810508       0.37258161       1.66608277      -0.91351563
Ti      17.02268922      14.73867707      15.82383987       0.25396213       0.89651078       0.63390282
Ti      18.21538106       2.93259252      11.82681429      -1.51471239      -0.11042428       0.94284159
Ti      17.54694704       4.89146489      14.37922678      -0.48845175      -0.98308241      -1.25924747
Ti      10.29874388       7.15086700      11.91175005       0.93523808       0.10443355       2.72974885
Ti       6.68593978       3.26850342      11.73313206       0.14426820       0.18150916       0.91332984
Ti      21.20855124      21.76043229      18.76201988      -3.45914197      -2.95598054      -2.64172468
Ti      12.71302630      10.98239661      15.55416671      -0.61161661      -0.22700943      -0.38373542
Ti       2.68464921       6.97556740       7.87908438       1.00232995       1.08097562      -0.10681318
Ti      11.20571982       4.54804028      17.13392463       0.65255763       1.71310705      -0.61396657
Ti       6.53772947      16.79752069       2.74401637       0.22930114      -0.41032925      -0.77477033
Ti       8.65362874      22.78438246       0.86310493      -0.34291414       0.66527516       1.54841533
Ti       9.44402909       4.21208141      13.25618836      -0.40062802       0.55508702      -2.17276204
Ti       0.95081056       7.88909413      16.30495832       1.83419444      -0.13091329       0.30075857
Ti       9.51305942       3.61739764      22.47882709      -0.52522884      -4.41118842       5.86810514
Ti      21.11604684       5.05679826      16.51543500      -2.89038621      -0.59647737       1.93001226
Ti      15.55083776      15.56882511       1.69834088      -2.56272316       0.81962378      -1.15639438
Ti       5.72029703       3.05437736       4.97785556       1.14528755       1.37104857      -1.29517448
Ti      22.85074381      11.62679219       1.16478049      -1.56782186      -0.16323499      -0.97581026
Ti       5.80366099      15.82622644       5.57936968      -0.33697964       1.93902022       0.04718482
Ti      20.42791650       4.02110560      13.66910518      -2.69887534       1.58196989      -0.77673852
Ti       3.37350754      16.97851175      14.04285246       1.41802645      -1.20559610      -0.67770687
Ti      22.39125895      22.39074286      15.52694564       0.41937906       0.41996190       1.72198074
Ti      17.24385465       8.91226777      14.22244679       0.22489783       0.17232817       1.13747296
Ti       2.07706788      11.86623290       5.28235502      -2.27213651       1.15816623      -0.75409079
Ti      21.91462736       6.45415475      18.90605513       4.84152216       1.04114252       5.21672440
Ti       0.57253435      13.40210974      10.40349656       2.05918574       1.14580375       0.60902740
Ti      10.25995704       4.31590499      19.92572002      -0.10341984      -0.44004080      -0.18368071
Ti      21.65714413       6.96232850      15.01649763       0.36624342       0.87054142      -2.57470205
Ti      19.19871378       6.71717961      14.77046755      -0.15028865       0.09246594       0.57787168
Ti      12.15562126       7.97825750      16.40046324      -0.94230658      -0.75122105      -0.14246894
Ti       0.20033884      10.46009509      11.43820999      -1.17954522       0.75673240      -1.11703193
Ti      20.99618605      13.38834859      21.89024882      -1.22178340       0.14450166       0.78003824
Ti       6.30162934      13.36423957      10.55740961       1.20115730       2.30786055      -0.32638971
Ti       3.10544086       3.73570372      15.94739960      -1.35620266       1.74038886      -0.67451359
Ti      17.09891958      13.83785372       3.44337613       0.63920768      -0.75380885      -0.01999798
Ti       8.96286676       9.79611091       7.09476116       2.00767475       0.03270009       0.64989820
Ti       9.41854407      11.22827334      19.93745130      -1.17199662      -1.67241216      -0.36793020
Ti      21.78353233      14.29458099      19.04018890       0.53112654      -0.36010110      -0.80556184
Ti       8.98850142      13.19766553      22.15962178       2.29253674       0.85164994       0.29226099
Ti       9.48214697       8.90936805      17.28880758       0.38998990       1.31304559       1.12901425
Ti       8.69305484       2.49440078       3.12447864      -1.65192366      -1.15661913       1.47500932
Ti       4.05518752       6.61655617      15.16271939      -0.46277063       1.57220644       0.11355879
Ti       2.93052043      10.34576942       0.01987729      -1.93653995      -0.05400415      -1.95174509
Ti      11.51544565      10.69336788       7.97563058       4.21412789       1.34868943       4.02534173
Ti      15.21735835      10.06731352      14.94292052      -0.10123037      -0.26441225      -0.65731893
Ti      19.19877301       0.30226238      16.99100026      -2.13176316      -0.32932083      -0.55069590
Ti       9.51072198       2.28229679      10.89867065      -0.25940795      -0.73920043      -1.33660433
Ti       4.55669407       5.47173526       9.76980181       2.33251792      -1.18005794       0.86914016
Ti      20.28688040      16.73810817      14.12877098       2.58909041      -0.83079702      -0.78101510
Ti       0.39064361       3.15254518      14.83668855       8.27212262       6.77044618      -0.25189060
Ti      22.22323823       1.07423635       4.73622969       4.45215172       0.01820266     -10.23260570
Ti       4.65729932       8.32285941       1.50016228      -0.27036372       1.45497644       2.30615932
Ti      20.93279269       7.66716123       4.79034765      -0.70327234       0.21081065       0.42231503
Ti      15.32634770      11.76812305      19.86601454       0.70100429      -3.42707896       1.16039057
Ti       9.16219645       7.63752052       4.76944598       1.14916956       0.25151945       0.62495358
Ti      19.37855550       6.01568971      11.22292306      -3.41420951      -0.39820877       1.62297651
Ti      19.92521855      15.90218275      16.93163861      -1.43723315       0.65791302       0.27126193
Ti      20.08251618      11.68938839      12.41456645       0.37569809      -1.22858572       0.32891718
Ti      13.89572859      13.78558778      14.92431837       0.79962581      -0.26791376       0.59611820
Ti      16.25813168      18.64113315       0.58238258      -1.18666518      -0.36942641       2.16347235
Ti      19.99863819       7.83156314      17.31425186       5.83770919       6.01546931      -1.17102557
Ti       3.90528593       5.56852043       2.42183339      -0.74492292      -0.11489965       0.25536309
Ti       5.47009491       8.21625337       9.17646583       1.49047559      -0.55044067      -0.31138386
Ti      15.29027036      13.57270440      22.25949465      -0.14531848      -2.09077770      -0.64408952
Ti      10.22150388       9.66755606      14.31170098       0.11961026       0.60325578       1.72628474
Ti       7.36131911      18.81199574      11.88477414       0.51701564       0.74742539       0.74331643
Ti      17.65348002       7.26606876      16.70390060      -2.05429608      -0.19077086       0.81034157
Ti       6.55516011      22.24123131      19.77185847       1.68082711       1.18442816       0.04108933
Ti      20.43905114      18.85871759      16.13313342       1.01140958       0.29732694       0.69076349
Ti      13.49831555       6.85002843       7.81715982      -8.68199682       1.46731888      -1.84602229
Ti      20.84289647      14.51741229      11.74987249      -0.43440247      -1.18059924       1.12085116
Ti      17.89791137      20.04823854      17.08034760      -1.62541576       2.20370030       1.85949838
Ti      20.83426362       9.91494996       7.04474337       0.13534182      -0.37003818       1.25209308
Ti       6.77047036      20.00230657      17.75198556      -0.37041229       0.23231541       0.77134196
Ti       4.01220670       0.56000478      20.26381495      14.31900167     -14.14235765     -15.08840346
Ti       3.69213587       9.92806529       7.17864679       0.15783627       0.45547132       0.62465533
Ti      10.04040295       6.35136729      22.25225506       2.30042386       0.74367261      -0.82727458
Ti      21.10487924      22.58872317       8.25217501      -2.69048703       0.27546345       2.03570771
Zr       0.08744858       3.79684027       4.60229747      -1.18482578      -0.20046052      -2.23465547
Zr       2.67218909      17.23683226       6.53933443       0.48245874       1.94205323       1.68585093
Zr       0.89105053      12.91190747      20.74276196       0.13397299      -3.55466467      -1.11077145
Zr      13.69868403       9.35277660      10.04339646       3.58379960      -4.57199025       2.51702160
Zr       4.51574199      17.60463665      10.66616930      -0.40476638       1.80761397       2.52086228
Zr       3.87984231       4.50438015      12.99815227      -0.17645635       0.72368784      -1.59050676
Zr      13.17667537      11.62799071       5.50474530      -0.86252454       1.54542166      -0.89523464
Zr      13.18616374       5.27016847      21.40079538      -1.84361053      -1.74335015      -1.18968166
Zr       5.67968807       1.50161048       2.20130063       0.45830384      -2.58153525      -0.56433555
Zr      13.92324361      18.41874786      19.45394170       2.82048395      -2.36514175      -0.30528115
Zr      15.93730428      22.26680125      15.58170008       0.29478658      -2.15367381      -0.13481708
Zr       0.98743844       4.47542346       1.53382038      -0.00474135      -1.48657611      -0.86595526
Zr      14.09847129      15.98179634      17.14304443      -0.59626170       1.40038096       0.37828436
Zr       2.16971276       4.15615194       8.82982944      -2.19238877       0.36182915      -1.92779317
Zr      22.65655917      20.55911095      10.17801585       0.03072268       2.06766254      -2.16971802
Zr      19.96479909      15.20262620       4.66338607      -2.53232157      -2.55300671      -2.11609888
Zr       1.08948835       8.96517482       5.94692220      -2.34283128      -1.49654528       0.16643607
Zr      12.26347755      14.32460029       0.69084518      -0.35641228       2.62356713      -1.20769244
Zr      14.06600347       2.35909942       3.46669689       1.67061731      -1.08181304       0.09211249
Zr       4.65342293       7.70076943      12.31069563       2.26143205      -2.05832723      -1.21463484
Zr       9.53141208      22.75311188       8.31556759      -1.38604146      -0.73288524      -0.38301705
Zr      21.80297064      18.95995371       0.42942153      -3.48206928       0.98482063       1.97170487
Zr       2.80481905       8.06744985      20.55146525       0.28051852      -1.41279931      -2.37397313
Zr       6.17210685      18.26579503      14.84456719       3.44041294      -3.37771297       2.00664237
Zr      12.08202049      15.64415244      12.78464265       0.49063266       2.52396789       3.16735893
Zr       6.59805174      14.39232170       0.66639885      -0.61067335       2.76874888      -2.43306345
Zr      10.34403993       2.79376861       7.60470026       0.67831260      -0.03987949       1.06552733
Zr       5.42291035      18.57708622       7.78912113       1.52338076      -2.08425388      -1.70964265
Zr      13.31971080      15.24797278      20.42706568      -0.22476335       1.71659660      -0.85765633
Zr      22.71949088       0.20394179      12.60041602       1.07221790       0.35135739      -0.35680613
Zr      15.07171918      20.42266759       6.18164222       0.71147017       0.62472451       1.07453933
Zr      22.33833771       2.45938413      14.91235533      -7.68132687      -7.92014071       2.51183727
Zr      18.94307168      11.99545943       5.35606112      -0.88178746      -0.64262146      -0.00656115
Zr      12.12119997      13.41413369      10.95600972       0.84932989      -0.51129591      -3.58917141
Zr      10.22280212      20.07310659      13.10594829      -0.20842133      -0.82922792       1.56794383
Zr       7.64134890       2.87380570      18.98627193      -1.71802831      -0.10682760      -1.99407950
Zr      17.99369678      11.06027459       8.31823702       0.99979287      -1.39339262       0.29058938
Zr      11.31802945      10.23842173      11.53671113      -2.38027340       1.73385979      -1.37782782
Zr      16.89758649      17.29786595      17.96225983       0.17330986      -2.05762285       1.40278190
Zr      15.84141552      20.97750959       3.26598462       4.75299674       2.10653113      -2.44201803
Zr       4.62562644      10.84982718       4.31350762       1.72321869      -1.39345564      -2.07680184
Zr       1.49838829      18.90121800      12.00890417       3.24212486      -1.30517782       1.36471236
Zr      12.43146350      19.14836149       5.32176590      -2.62207788      -0.25039745      -4.71893048
Zr      16.86179865      20.77063777      10.32553014       1.90010589      -1.58936627      -1.23309006
Zr      21.90756807       3.09648003       7.62166352       0.19603804      -1.25406221      -0.40254444
Zr      22.00969209       7.59693771      11.96039331       3.43332663      -2.27702221       1.24814853
Zr       8.48022336      18.15085752      19.47070205       0.61402672       0.91587365       0.02859718
Zr      18.95877513      22.21622227       4.42579646      -0.94290227       1.24440268      -2.30640683
Zr      21.93218874      10.57739355       4.24126211       0.34213720       2.15394104      -2.06708992
Zr       2.64554009       0.19552417       1.03102187       3.05960321       1.61628106      -1.38087748
Zr      17.62003635      17.91246215      14.93271108       0.62004587      -1.04305488       1.49697088
Zr      17.27768618       5.88639779       6.93468109      -2.21490207      -1.87374720      -0.65959354
Zr      20.50082822      15.93321626       1.45143180       2.65151480      -1.52625275      -0.43791634
Zr       0.94144130      20.22424460      17.38850290      -0.78234178       0.97716063       1.36140162
Zr       5.44260754      21.81448137      22.65071182       1.86118129       1.53907790       2.28165132
Zr      12.29702896       5.32427182      14.04272428      -3.54740217      -0.30813103       0.73091531
Zr      11.33298028       2.35584639      14.95433408      -0.08876324      -0.34785268      -1.22987229
Zr      15.17274852       7.14504752      15.63809569       2.94935092       7.76406938       2.92709205
Zr      17.92574428      13.08991984      10.65509344       0.37790984       3.39760518       0.72611800
Zr      15.16974562      22.69337241       8.56232195      -1.08486566      -0.72579746      -2.02315247
Zr      20.16115940      13.59821445      14.75458251      -0.91933291       2.92983201      -0.18615168
Zr       4.10156649       8.86818889      17.22674000      -3.17097670       2.18946373       0.34989912
Zr       4.40693596      15.32095279       8.36245806       1.66946471       1.55199471       1.97739133
Zr      14.92224361      14.52355708      11.86670971       2.17745179      -0.77025366      -1.21938097
Zr      16.04248367      12.96873294       6.78719444      -0.54085117      -1.04342765      -4.98164898
Zr       4.54150882       0.63049714       5.26166385       0.33906376      -2.30790937      -0.53744251
Zr      14.11543901       5.82311816      18.40562035       0.27909895       0.23167567      -0.35954581
Zr       5.62683787      15.05693099      15.96974635       0.37935208       1.33523305      -0.98752424
Zr       6.51975716      11.17962852       8.39399306      -0.58849449      -0.06690632      -0.24680537
Zr       5.91118271       0.13527126      12.45193234      -3.87900937       2.03999102      -2.82503158
Zr      21.74165880      12.87472491       6.38055768       0.72288930       2.64098650       1.04464009
Zr       2.18077003      13.09444415      17.80008066      -3.97375369      -0.49805359       1.18374065
Zr      22.57718760      17.12416657      17.94230041       1.14520569       1.32096038       2.91311151
Zr       7.45284084      21.15442607      14.09810147       1.95901082      -1.57695049       2.68381435
Zr      21.85450102       3.60090512      20.40339464      -1.61561632       2.21112448      -2.38492101
Zr      10.42935330       1.62985329      17.86198668      -1.36028883      -0.82267457       1.38855869
Zr      21.15065295      10.92317689      19.44149219       1.71758293       4.71597892       1.46054733
Zr      15.12036799       9.96494932       7.14904478      -0.18919335      -1.51064777       0.89412251
Zr       1.97195923       7.47633882       0.33065744      -2.66229260      -2.19479892       4.74922585
Zr      19.59878579       7.95878419      20.47996622       1.24479035       0.29748616       2.37679422
Zr      18.75677088      16.27612233       9.93493874      -0.42527704       0.92492959       1.20232829
Zr      15.91041284      19.72389914      13.05890733      -1.32770917       2.68321192       3.78292722
Zr      16.19420728      15.15623063       8.70349827      -3.86498863       2.15367746       2.64071947
Zr      10.58961215      15.45577341       8.81428516      -2.09927011      -2.03034952      -1.30652931
Zr      13.20381980       6.13750973      10.95235105       0.36404913      -0.73226991       0.80881826
Zr       8.62116973      20.64702970      21.59397910      -1.90386951      -2.96934305       2.16376373
Zr       6.72521109       2.27440798      21.88066705      -2.18933734      -2.68842506       0.05920093
Zr      12.93628047       8.64315948      13.28078586       2.00948405      -2.76608747       2.29239061
Zr      16.91317736       4.36268523      17.12578556      -1.46553405      -0.58338712       2.65110961
Zr       0.84297284      11.19134169       8.15893705      -0.84480941      -0.44160848       1.27937752
Zr      17.12199629      12.34157635      13.65886536      -1.34441245       1.29924518       1.22251046
Zr       0.89231536      15.70163225      12.69049948      -1.96819842      -0.41922070       2.30413908
Zr      16.85049020      19.19884419      20.56034210       1.94199008       3.00444466      -1.16908644
Zr       2.76254853       9.38583079      10.14980584      -0.05799083       0.44614014       0.51110840
Zr      10.53479167      22.22182248      15.68381588      -3.24971521       0.63432107      -2.02989048
Zr       0.80864091      21.69195634       7.09223998       1.24543726       0.22026299       0.30756085
Zr      19.05789739       2.42405879      19.07973687      -0.16147369       3.60524487       1.18461438
Zr       9.99565217      14.01473939      19.25843602       4.26317549       1.59160864      -1.59466401
Zr       1.62786336      16.61144675       9.85130577      -0.16798393      -1.23171312      -2.56212115
Zr       1.65137890       9.82237918       2.75793425       2.96721143      -0.61201131       0.51526512
