856
Lattice="22.90502845 0.0 0.0 0.0 22.90502845 0.0 0.0 0.0 22.90502845" Properties=species:S:1:pos:R:3:momenta:R:3 pbc="T T T"
C       19.99091443       7.48617555       2.86350752       0.00000000       0.00000000       0.00000000
C       11.46315026      16.56397962       0.69789535       0.00000000       0.00000000       0.00000000
C       16.99037656       8.75457361       3.95163046       0.00000000       0.00000000       0.00000000
C       15.16672280      12.91510818       4.44274133       0.00000000       0.00000000       0.00000000
C        2.60505458       1.05013721      18.73378403       0.00000000       0.00000000       0.00000000
C        3.57142143      15.14947627       6.24932261       0.00000000       0.00000000       0.00000000
C        9.25308280      10.55652143       1.95930547       0.00000000       0.00000000       0.00000000
C       17.13109193      12.08420951      18.80218997       0.00000000       0.00000000       0.00000000
C       16.05670406      18.19742321       6.00195537       0.00000000       0.00000000       0.00000000
C        2.88403516       5.35524639       0.33030199       0.00000000       0.00000000       0.00000000
C        8.40823238       0.34285021      18.86187655       0.00000000       0.00000000       0.00000000
C       11.36838455       6.41494328       1.51453877       0.00000000       0.00000000       0.00000000
C        3.64576634      16.35692506      19.18692444       0.00000000       0.00000000       0.00000000
C       19.91749163      10.87731157      17.53796898       0.00000000       0.00000000       0.00000000
C        4.73594219      19.29158546      18.51482427       0.00000000       0.00000000       0.00000000
C        8.52453794      15.41469839      22.43995826       0.00000000       0.00000000       0.00000000
C       20.52488270       5.74761909      20.45507737       0.00000000       0.00000000       0.00000000
C        8.36369189       7.62884434       2.52385023       0.00000000       0.00000000       0.00000000
C        8.38938330       3.68486869      20.90537226       0.00000000       0.00000000       0.00000000
C        1.62186842      17.29954424       4.55477848       0.00000000       0.00000000       0.00000000
C       22.70390860      21.80386723       4.85310548       0.00000000       0.00000000       0.00000000
C       10.22477638      11.33893417      21.99111898       0.00000000       0.00000000       0.00000000
C        0.74986176      19.86080189      22.54548249       0.00000000       0.00000000       0.00000000
C       19.89564519       9.65960267       5.12173290       0.00000000       0.00000000       0.00000000
C       11.35483102      14.27093658      21.31701322       0.00000000       0.00000000       0.00000000
C        3.62895801      18.56467707      21.55064873       0.00000000       0.00000000       0.00000000
C        4.59907625      11.31322410      21.91794288       0.00000000       0.00000000       0.00000000
C       17.04828884      22.26537823      17.76757929       0.00000000       0.00000000       0.00000000
C       14.07652689      20.12025695       4.07387790       0.00000000       0.00000000       0.00000000
C       21.62132592      18.31918099       5.90534094       0.00000000       0.00000000       0.00000000
C       16.96633228      10.91550134       6.29912256       0.00000000       0.00000000       0.00000000
C       13.29576412      22.70535788      21.93612015       0.00000000       0.00000000       0.00000000
C       22.58453384      19.52239201       2.63055513       0.00000000       0.00000000       0.00000000
C       14.17232573      13.33580095      20.18300188       0.00000000       0.00000000       0.00000000
C        2.69978168       3.31114767      20.99578656       0.00000000       0.00000000       0.00000000
C        8.44219341      22.34425831       6.13225803       0.00000000       0.00000000       0.00000000
C        3.58555694      12.83335509       4.18189330       0.00000000       0.00000000       0.00000000
C       16.19523186      13.56747496       1.34605098       0.00000000       0.00000000       0.00000000
C        6.80482391       1.34449610       4.26614956       0.00000000       0.00000000       0.00000000
C        1.77180446       6.73596249       5.79221549       0.00000000       0.00000000       0.00000000
C       13.30345419      12.47835097       0.22107473       0.00000000       0.00000000       0.00000000
C        7.54132770      16.82376223       4.77362192       0.00000000       0.00000000       0.00000000
C        3.72928363       8.25033970      22.49143787       0.00000000       0.00000000       0.00000000
C        9.20598859       8.34547810      22.57312080       0.00000000       0.00000000       0.00000000
C       11.48761215       1.25169482      19.97776978       0.00000000       0.00000000       0.00000000
C        6.52442705       5.02994090      19.06038177       0.00000000       0.00000000       0.00000000
C       11.27864275      12.19944927      19.01955435       0.00000000       0.00000000       0.00000000
C       16.04336497       0.97592458       0.26576141       0.00000000       0.00000000       0.00000000
C        4.71776280       1.22174449       0.06991577       0.00000000       0.00000000       0.00000000
C       22.00456558       1.05322743       0.09184330       0.00000000       0.00000000       0.00000000
C       18.75983735      20.38917273      19.51163941       0.00000000       0.00000000       0.00000000
C       12.24232392      17.26574206      20.45352638       0.00000000       0.00000000       0.00000000
C        0.02290726       8.63519843       3.75868847       0.00000000       0.00000000       0.00000000
C        6.56189864       7.39647796      21.24092649       0.00000000       0.00000000       0.00000000
C       15.23856364      20.67735924       0.93249987       0.00000000       0.00000000       0.00000000
C        5.13236982       3.60617958       3.18758578       0.00000000       0.00000000       0.00000000
C        8.22321963      13.03482950      20.05234064       0.00000000       0.00000000       0.00000000
C       20.94293913       0.47241290       3.11056296       0.00000000       0.00000000       0.00000000
C        0.18089761      12.01536067      18.82566266       0.00000000       0.00000000       0.00000000
C        0.84468461       4.90932191      19.21122368       0.00000000       0.00000000       0.00000000
C       11.41485272      21.21239396       5.16976831       0.00000000       0.00000000       0.00000000
C       19.15639047       6.81439221       5.82386787       0.00000000       0.00000000       0.00000000
C        5.46213115      19.12950805       2.75502960       0.00000000       0.00000000       0.00000000
C        4.48861538       5.98066503       4.58566985       0.00000000       0.00000000       0.00000000
C       15.08890253      18.37418571      21.64969251       0.00000000       0.00000000       0.00000000
C       18.28966361      11.70193006       3.24019781       0.00000000       0.00000000       0.00000000
C        7.38090626      12.37008379       0.20488420       0.00000000       0.00000000       0.00000000
C       14.17326432       2.88636831      21.22360866       0.00000000       0.00000000       0.00000000
C        7.31431545       6.77588680       5.72271815       0.00000000       0.00000000       0.00000000
C        5.63530150      12.16877965      18.85945602       0.00000000       0.00000000       0.00000000
C        6.61875962      15.17925668      18.20012402       0.00000000       0.00000000       0.00000000
C       20.85604040      12.98308516       4.31281854       0.00000000       0.00000000       0.00000000
C       10.35504228       3.18280180       2.33234901       0.00000000       0.00000000       0.00000000
C       19.47092735      10.42613181      20.31390509       0.00000000       0.00000000       0.00000000
C       12.19403402       7.32349634      21.53561612       0.00000000       0.00000000       0.00000000
C        3.68571886       2.84175759       5.54957569       0.00000000       0.00000000       0.00000000
C        0.05172649       6.43883092       1.48171989       0.00000000       0.00000000       0.00000000
C        6.43802788      22.02172711       2.04887716       0.00000000       0.00000000       0.00000000
C       16.15133902      15.78771652       3.70882099       0.00000000       0.00000000       0.00000000
C       19.90859577       2.85568121      21.35147526       0.00000000       0.00000000       0.00000000
C       19.76129387      15.58270769      22.14423217       0.00000000       0.00000000       0.00000000
C        9.35317310       6.19301306      20.19093347       0.00000000       0.00000000       0.00000000
C       17.97358235       6.51988867      21.75681640       0.00000000       0.00000000       0.00000000
C       13.36063634      14.67835012       2.75097361       0.00000000       0.00000000       0.00000000
C       13.11075401       8.08828676      18.54930920       0.00000000       0.00000000       0.00000000
C       16.14029207       5.64182297       4.73876153       0.00000000       0.00000000       0.00000000
C       18.10841492      17.44216280      20.15981702       0.00000000       0.00000000       0.00000000
C       19.14744075      12.42317008       0.06647133       0.00000000       0.00000000       0.00000000
C        0.86687320      11.93768831       3.06883401       0.00000000       0.00000000       0.00000000
C       14.99024180       3.61888881      18.37642108       0.00000000       0.00000000       0.00000000
C       18.96647626      22.85307658      21.93610847       0.00000000       0.00000000       0.00000000
C        2.62232749      15.60443219      22.30974560       0.00000000       0.00000000       0.00000000
C        2.85027922       7.68511578       2.62572683       0.00000000       0.00000000       0.00000000
C        2.66858682      20.37588894       3.78166774       0.00000000       0.00000000       0.00000000
C       20.83053970      18.72675916      21.22734945       0.00000000       0.00000000       0.00000000
C        2.00769097      10.15768655      20.79633739       0.00000000       0.00000000       0.00000000
C        7.58755432       8.07270130      18.35253430       0.00000000       0.00000000       0.00000000
C       12.11859161      15.17972756      18.15610366       0.00000000       0.00000000       0.00000000
C       13.25900610      20.44084319      19.70702900       0.00000000       0.00000000       0.00000000
C       14.08832606      22.52850909       6.31934477       0.00000000       0.00000000       0.00000000
C       16.04287446      19.32154874      18.34567730       0.00000000       0.00000000       0.00000000
C        1.09028200       1.81323120       4.32934158       0.00000000       0.00000000       0.00000000
C       19.99850345       0.55551434      19.01662354       0.00000000       0.00000000       0.00000000
C       10.43463031      19.21852028      18.44473361       0.00000000       0.00000000       0.00000000
C       18.41391625      10.02450050      20.86293766       0.00000000       0.00000000       0.00000000
C       13.91999239       5.04073378       0.59549293       0.00000000       0.00000000       0.00000000
C       18.77906869      17.24752113       4.72093709       0.00000000       0.00000000       0.00000000
C       17.12508392      18.97893874       2.84559589       0.00000000       0.00000000       0.00000000
C       12.43720378      13.85970775       5.75155751       0.00000000       0.00000000       0.00000000
C        5.67720314      14.32499333      21.21195103       0.00000000       0.00000000       0.00000000
C        6.30836451       9.41137930       0.84492821       0.00000000       0.00000000       0.00000000
C       22.84722523       1.60740663      20.08219639       0.00000000       0.00000000       0.00000000
C       15.01403161       6.19983058      20.51803702       0.00000000       0.00000000       0.00000000
C       18.24758247       9.53566841       0.95361362       0.00000000       0.00000000       0.00000000
C       16.01661897       3.27467922       2.46418516       0.00000000       0.00000000       0.00000000
C       17.81100767       1.37147443       4.52579418       0.00000000       0.00000000       0.00000000
C        8.39408436      11.07656542      17.56075304       0.00000000       0.00000000       0.00000000
C       17.98303245      19.67956568      22.72931367       0.00000000       0.00000000       0.00000000
C       12.25953859       4.88773688      19.28106721       0.00000000       0.00000000       0.00000000
C       12.31646096      11.65724428       3.15402928       0.00000000       0.00000000       0.00000000
C       14.86491235       8.37576521      22.70906705       0.00000000       0.00000000       0.00000000
C        0.80327527      14.09390050       5.39011828       0.00000000       0.00000000       0.00000000
C        8.59675302      17.70406780       1.78956821       0.00000000       0.00000000       0.00000000
C       20.87344928      16.28998804      19.09259031       0.00000000       0.00000000       0.00000000
C       17.09208393      16.63781697       0.37751647       0.00000000       0.00000000       0.00000000
C       12.92570260      10.21926990      21.09912093       0.00000000       0.00000000       0.00000000
C        2.00520349       4.62002591       3.66619243       0.00000000       0.00000000       0.00000000
C        0.62737969       7.03803577      21.57171868       0.00000000       0.00000000       0.00000000
C        5.62269585      21.37538794       4.83296093       0.00000000       0.00000000       0.00000000
C       21.82532077      13.71948471       1.41568835       0.00000000       0.00000000       0.00000000
C        1.82903216       2.31781835       1.26950326       0.00000000       0.00000000       0.00000000
C       17.97883099      15.03971130      17.83507492       0.00000000       0.00000000       0.00000000
C        2.55684593      18.04961520       1.58197146       0.00000000       0.00000000       0.00000000
C        1.87430276      22.87087507      21.83787941       0.00000000       0.00000000       0.00000000
C       13.14403193       4.38028464       3.59119284       0.00000000       0.00000000       0.00000000
C       13.45688797      16.96685612       4.96567389       0.00000000       0.00000000       0.00000000
C       17.43983923       7.69755289      21.82242568       0.00000000       0.00000000       0.00000000
C        7.54539885      14.69794303       2.65532771       0.00000000       0.00000000       0.00000000
C       14.08021055       9.61352921       5.09190692       0.00000000       0.00000000       0.00000000
C        4.75150002       9.20101070      19.49771314       0.00000000       0.00000000       0.00000000
C       19.92348408       5.17338655       0.81189725       0.00000000       0.00000000       0.00000000
C        2.94249087      13.27359193      20.00752310       0.00000000       0.00000000       0.00000000
C       15.12391112       0.16307204       3.40626075       0.00000000       0.00000000       0.00000000
C       14.50628605      17.68343957       1.83400105       0.00000000       0.00000000       0.00000000
C       10.50388685      18.16938090       6.01163685       0.00000000       0.00000000       0.00000000
C        7.68045115      22.71975265      21.80576760       0.00000000       0.00000000       0.00000000
C        2.84031248       9.92058819       5.05442054       0.00000000       0.00000000       0.00000000
C        7.58668249       2.30444365       1.23672479       0.00000000       0.00000000       0.00000000
C       10.63451928       2.30527744      20.35550796       0.00000000       0.00000000       0.00000000
C       11.30525635       4.33350179      22.21602263       0.00000000       0.00000000       0.00000000
C       16.96566628       3.93087823      22.40350829       0.00000000       0.00000000       0.00000000
C       11.23124494      18.67783605       3.07586930       0.00000000       0.00000000       0.00000000
C       18.93628731       2.17637003       1.36665834       0.00000000       0.00000000       0.00000000
C        4.63111741      13.52597296       1.33765856       0.00000000       0.00000000       0.00000000
C       21.66586888      16.17392051       3.54173977       0.00000000       0.00000000       0.00000000
C       11.31487374      22.25968427      17.69296740       0.00000000       0.00000000       0.00000000
C       13.07050778       6.61207034       5.77128795       0.00000000       0.00000000       0.00000000
C        5.67454679       1.93089839      19.73159268       0.00000000       0.00000000       0.00000000
C        9.54031206      18.37934573      21.58206815       0.00000000       0.00000000       0.00000000
C        0.62972860      17.38086539      20.31292413       0.00000000       0.00000000       0.00000000
C       21.79557960       3.32812516       2.61487293       0.00000000       0.00000000       0.00000000
C        5.87421474      21.72018484      17.72726505       0.00000000       0.00000000       0.00000000
C        9.04441975       2.45310697      20.69217881       0.00000000       0.00000000       0.00000000
C       12.31951447       1.25707167       4.37910413       0.00000000       0.00000000       0.00000000
C       12.44003308      19.62328730      22.87208482       0.00000000       0.00000000       0.00000000
C        5.70584999      10.93444260       6.32530284       0.00000000       0.00000000       0.00000000
C       14.46248460      15.39492150      22.43224616       0.00000000       0.00000000       0.00000000
C        1.85983820       7.83507446      18.36373558       0.00000000       0.00000000       0.00000000
C       22.76263455       3.98140392      22.41169693       0.00000000       0.00000000       0.00000000
C        9.43057121       2.50522095       5.37989108       0.00000000       0.00000000       0.00000000
C       19.77389054      17.99359407       1.72400038       0.00000000       0.00000000       0.00000000
C       10.33601333       9.06982100      19.51608592       0.00000000       0.00000000       0.00000000
C       10.99501475      10.82835897       6.04978878       0.00000000       0.00000000       0.00000000
C       14.26921982      11.37799195      18.32093863       0.00000000       0.00000000       0.00000000
C       14.28089150       0.55210037      18.83553757       0.00000000       0.00000000       0.00000000
C       10.48659958       0.77668984       0.19842378       0.00000000       0.00000000       0.00000000
C        4.57187442      15.96399153       3.47425896       0.00000000       0.00000000       0.00000000
C        0.85739228      15.14537027      18.13305179       0.00000000       0.00000000       0.00000000
C       15.98602805      11.47431054      21.99614949       0.00000000       0.00000000       0.00000000
C        8.17457433       9.77372333       4.99510614       0.00000000       0.00000000       0.00000000
C        9.38743909      12.75722249       4.31675823       0.00000000       0.00000000       0.00000000
C        6.49552229      19.63771595      22.56799052       0.00000000       0.00000000       0.00000000
C        5.06892379       4.77361594       4.29082024       0.00000000       0.00000000       0.00000000
C        8.40824609      20.14950250       3.94767839       0.00000000       0.00000000       0.00000000
C       20.96010702      21.02637900       0.74003399       0.00000000       0.00000000       0.00000000
C       11.12913564       8.53199011       3.84569719       0.00000000       0.00000000       0.00000000
C        1.01743619      22.25599962       1.90333401       0.00000000       0.00000000       0.00000000
C       16.99616253       6.22023266       1.72128491       0.00000000       0.00000000       0.00000000
C       17.96686520      21.90492601       2.09385741       0.00000000       0.00000000       0.00000000
C       16.00967649       6.57772639      17.64271979       0.00000000       0.00000000       0.00000000
C       22.61356448      14.64191870      21.11233313       0.00000000       0.00000000       0.00000000
C       17.13994732       1.64529223      20.24412215       0.00000000       0.00000000       0.00000000
C        3.62481600      10.50523864       1.88954122       0.00000000       0.00000000       0.00000000
C       17.11187493      14.39517339      20.98254790       0.00000000       0.00000000       0.00000000
C       15.11240684      10.47107361       2.06168101       0.00000000       0.00000000       0.00000000
C        7.84611311       4.57734480       3.18515191       0.00000000       0.00000000       0.00000000
C       22.80168968      10.89083299       6.08877196       0.00000000       0.00000000       0.00000000
C        5.60643506       4.28759946      22.05398171       0.00000000       0.00000000       0.00000000
C       10.11236563      13.50810900       1.36040410       0.00000000       0.00000000       0.00000000
C       17.03477977      21.39203177       5.29984777       0.00000000       0.00000000       0.00000000
C        9.48363431       0.16408713       3.03127744       0.00000000       0.00000000       0.00000000
C        1.80161971      20.35869702      19.59572649       0.00000000       0.00000000       0.00000000
C       21.90277476      11.29413315      21.79514142       0.00000000       0.00000000       0.00000000
C       21.92321823      21.65195349      20.63222744       0.00000000       0.00000000       0.00000000
C        7.51579052      10.22641749      20.76306126       0.00000000       0.00000000       0.00000000
C        5.64684261       6.44236862       1.46961854       0.00000000       0.00000000       0.00000000
C       20.08541577      13.21700184      19.82869514       0.00000000       0.00000000       0.00000000
C        9.53775364      20.80712870       0.86123923       0.00000000       0.00000000       0.00000000
C       18.77607339      14.78791328       2.37404300       0.00000000       0.00000000       0.00000000
C       16.17959289      21.57909123      20.94836861       0.00000000       0.00000000       0.00000000
C        1.43239385      15.09641147       2.47502926       0.00000000       0.00000000       0.00000000
C        6.79099147      13.94424862       5.50682136       0.00000000       0.00000000       0.00000000
C       17.68101442       4.63964059      19.48348791       0.00000000       0.00000000       0.00000000
C        4.56022365      21.45849711      20.64596682       0.00000000       0.00000000       0.00000000
C       15.75112930       9.38644379      19.63208215       0.00000000       0.00000000       0.00000000
C       10.18353970       5.54843141       4.58605440       0.00000000       0.00000000       0.00000000
C       20.66275406       2.78423831       5.51153710       0.00000000       0.00000000       0.00000000
C        3.75067226       0.44381878       3.08287187       0.00000000       0.00000000       0.00000000
C        5.76614336      16.66842161       0.63724069       0.00000000       0.00000000       0.00000000
C       20.87463945       8.10927952      22.65744336       0.00000000       0.00000000       0.00000000
C       12.39711402      21.92446643       2.20185346       0.00000000       0.00000000       0.00000000
C        1.72939525      12.47401091       0.10044767       0.00000000       0.00000000       0.00000000
C        0.74841145       9.46588974       0.68710696       0.00000000       0.00000000       0.00000000
C        0.00371220      22.38511634      17.72892343       0.00000000       0.00000000       0.00000000
C        5.30215028      22.89210313      17.63299274       0.00000000       0.00000000       0.00000000
C        3.51715217      20.91146250       0.82235218       0.00000000       0.00000000       0.00000000
C       10.41398721      15.76571926       3.64615641       0.00000000       0.00000000       0.00000000
C        9.37299497      16.14350664      19.30677195       0.00000000       0.00000000       0.00000000
C       21.72579755      19.21605118      18.41121993       0.00000000       0.00000000       0.00000000
C        5.46666967       8.72949081       3.75665585       0.00000000       0.00000000       0.00000000
C       17.97941636      14.13389810       5.64162326       0.00000000       0.00000000       0.00000000
C       20.88848056       3.35346998      18.01063833       0.00000000       0.00000000       0.00000000
C       15.16792629       2.46299429       5.65918741       0.00000000       0.00000000       0.00000000
C       12.10704343       9.55072973       1.03912694       0.00000000       0.00000000       0.00000000
C        3.79421224       6.00652084      20.30225607       0.00000000       0.00000000       0.00000000
C        2.59900075       0.02401082       6.17089648       0.00000000       0.00000000       0.00000000
C        3.87964969       4.04395665      17.93330796       0.00000000       0.00000000       0.00000000
C        6.54324661      17.35970330      20.38643063       0.00000000       0.00000000       0.00000000
C        7.66880423      20.34426719      19.63701825       0.00000000       0.00000000       0.00000000
C        9.46052653       3.83494477      17.99026073       0.00000000       0.00000000       0.00000000
C       13.27320582       1.96736232       1.24938376       0.00000000       0.00000000       0.00000000
C       19.88849772      20.23593228       4.16093873       0.00000000       0.00000000       0.00000000
C       21.85048048       5.77111984       4.49963044       0.00000000       0.00000000       0.00000000
C        8.39289618       5.36430351       0.19186889       0.00000000       0.00000000       0.00000000
C        6.44972473      11.77433815       3.05666009       0.00000000       0.00000000       0.00000000
C        4.71213916      18.04578826       5.54067918       0.00000000       0.00000000       0.00000000
C       21.79567886       8.92105769      19.61010476       0.00000000       0.00000000       0.00000000
C        4.55439873       3.54785639       1.99353171       0.00000000       0.00000000       0.00000000
C       18.44092863       7.74435304      18.56518885       0.00000000       0.00000000       0.00000000
C       18.67618459       4.44257689       3.81272473       0.00000000       0.00000000       0.00000000
C       22.59584591      16.84725466       0.44396195       0.00000000       0.00000000       0.00000000
C       14.11554076       7.54057707       2.75305280       0.00000000       0.00000000       0.00000000
C       15.18988399      16.29891382      19.27850485       0.00000000       0.00000000       0.00000000
C       21.04177190      10.80452134       1.93932558       0.00000000       0.00000000       0.00000000
C       10.46270582      21.36429736      20.71915148       0.00000000       0.00000000       0.00000000
C        2.95863696      11.00243206      17.68785432       0.00000000       0.00000000       0.00000000
Hf      12.16158643       6.48405882       3.63732390       0.00000000       0.00000000       0.00000000
Hf      18.95911169      15.27639280      19.81005664       0.00000000       0.00000000       0.00000000
Hf       6.37227691       8.79145506       6.19687489       0.00000000       0.00000000       0.00000000
Hf      17.94563142       6.73469245       3.75167632       0.00000000       0.00000000       0.00000000
Hf       1.08796791       6.66969323       3.61924237       0.00000000       0.00000000       0.00000000
Hf       3.71317816      13.43223605      22.16323835       0.00000000       0.00000000       0.00000000
Hf       9.43647549       2.69554457       0.33756773       0.00000000       0.00000000       0.00000000
Hf       2.46974762      13.06539831       2.05668057       0.00000000       0.00000000       0.00000000
Hf       3.39960344       1.27429978      20.97040391       0.00000000       0.00000000       0.00000000
Hf       6.64265256       6.79165487       3.57086563       0.00000000       0.00000000       0.00000000
Hf      11.30558075       3.25215764       4.60311742       0.00000000       0.00000000       0.00000000
Hf      11.46428464      19.29335555      21.03989522       0.00000000       0.00000000       0.00000000
Hf      17.72021671       9.92717301      18.50831061       0.00000000       0.00000000       0.00000000
Hf      19.63909904      22.81746910       1.16432368       0.00000000       0.00000000       0.00000000
Hf       9.48199302       5.57408051       2.14334632       0.00000000       0.00000000       0.00000000
Hf       4.01850258      20.05603276       5.48141823       0.00000000       0.00000000       0.00000000
Hf      14.97408671       5.35745613       2.54254692       0.00000000       0.00000000       0.00000000
Hf      10.47136944      16.24150142      21.34837788       0.00000000       0.00000000       0.00000000
Hf      12.67377900      16.77915878       2.84874364       0.00000000       0.00000000       0.00000000
Hf      21.58741975       0.83263483       5.70734420       0.00000000       0.00000000       0.00000000
Hf       5.62391152       7.24138360      19.24864755       0.00000000       0.00000000       0.00000000
Hf      14.07846372       4.67014556       5.64382130       0.00000000       0.00000000       0.00000000
Hf      20.66607001       8.81563095      17.55834230       0.00000000       0.00000000       0.00000000
Hf      20.42848670      20.94656401      18.35335202       0.00000000       0.00000000       0.00000000
Hf      15.80261532      10.70283163       4.15904967       0.00000000       0.00000000       0.00000000
Hf      15.24087478      18.29122681       3.94446821       0.00000000       0.00000000       0.00000000
Hf       0.61185145      19.87139178       4.55730797       0.00000000       0.00000000       0.00000000
Hf       1.27408253       9.83793322      18.71949125       0.00000000       0.00000000       0.00000000
Hf      16.97930523       1.12898970       2.50186838       0.00000000       0.00000000       0.00000000
Hf      10.44939256      18.66194717       0.84506601       0.00000000       0.00000000       0.00000000
Hf       3.70586295      16.10023506       1.31107194       0.00000000       0.00000000       0.00000000
Hf      12.26251741       1.74317996      22.11694065       0.00000000       0.00000000       0.00000000
Hf      12.10354292      22.15429973      19.71071964       0.00000000       0.00000000       0.00000000
Hf       0.53754498      14.84411749       0.38954319       0.00000000       0.00000000       0.00000000
Hf      12.15086182      10.17863202      18.99177506       0.00000000       0.00000000       0.00000000
Hf      11.61313545      16.00012153       5.71580752       0.00000000       0.00000000       0.00000000
Hf       5.54179864      17.25111082      18.27797987       0.00000000       0.00000000       0.00000000
Hf      18.36554696      12.44995520      20.74939400       0.00000000       0.00000000       0.00000000
Hf      13.10887742       9.42867600       3.04917732       0.00000000       0.00000000       0.00000000
Hf      18.90304240      17.74686605      22.21078924       0.00000000       0.00000000       0.00000000
Hf       7.55365010      20.03143265       1.72623599       0.00000000       0.00000000       0.00000000
Hf      22.06354030       8.33075195       1.83741623       0.00000000       0.00000000       0.00000000
Hf       0.87600068      22.47504038      19.93671759       0.00000000       0.00000000       0.00000000
Hf      16.24751116       8.63470791       1.73814128       0.00000000       0.00000000       0.00000000
Hf      15.79920318       5.89481637      22.60041895       0.00000000       0.00000000       0.00000000
Hf       7.56468867      17.52759988      22.44985936       0.00000000       0.00000000       0.00000000
Hf      17.98411068      19.35915552       5.25535101       0.00000000       0.00000000       0.00000000
Hf       9.99615246      10.59947349       4.11498301       0.00000000       0.00000000       0.00000000
Hf       4.56456689       4.01207845      20.08690730       0.00000000       0.00000000       0.00000000
Hf      15.26671262      21.28180598      18.81393134       0.00000000       0.00000000       0.00000000
Hf      19.99126042      10.25776639      22.65854441       0.00000000       0.00000000       0.00000000
Hf       0.39323106      17.21350961       2.56548326       0.00000000       0.00000000       0.00000000
Hf       4.80680373      16.59301672      21.43602796       0.00000000       0.00000000       0.00000000
Hf      10.46535144      20.89458772       2.95855279       0.00000000       0.00000000       0.00000000
Hf      11.58036422      13.58917355       3.79844394       0.00000000       0.00000000       0.00000000
Hf      22.84732204       7.03677540      19.41369288       0.00000000       0.00000000       0.00000000
Hf       6.67573540       4.30449772       1.35733879       0.00000000       0.00000000       0.00000000
Hf      14.38254645      20.53846588      21.80894214       0.00000000       0.00000000       0.00000000
Hf      20.75464376       3.20782633       0.70865413       0.00000000       0.00000000       0.00000000
Hf      20.42276842       5.09568061       2.98881657       0.00000000       0.00000000       0.00000000
Hf      17.62339047      11.55675442       1.31090963       0.00000000       0.00000000       0.00000000
Nb       5.48301659      19.45488350      20.67799498       0.00000000       0.00000000       0.00000000
Nb       4.00136033      11.16426759      19.82352127       0.00000000       0.00000000       0.00000000
Nb       2.99422716       2.48512296       3.54925283       0.00000000       0.00000000       0.00000000
Nb      16.95499240       3.60623976       4.60614518       0.00000000       0.00000000       0.00000000
Nb      19.22385630       5.69829986      18.61108176       0.00000000       0.00000000       0.00000000
Nb      15.16367759       2.96231692       0.47246271       0.00000000       0.00000000       0.00000000
Nb       0.87820413       2.11159002      21.89245493       0.00000000       0.00000000       0.00000000
Nb      15.27687004       7.81191308       4.61020202       0.00000000       0.00000000       0.00000000
Nb      19.06908646       7.19237358       0.87637203       0.00000000       0.00000000       0.00000000
Nb      19.06121583       4.80080400      21.81228248       0.00000000       0.00000000       0.00000000
Nb      22.76365821       9.07007860      21.59101329       0.00000000       0.00000000       0.00000000
Nb      16.59052127       9.62457132      21.57574742       0.00000000       0.00000000       0.00000000
Nb      16.17344543      14.16522254      18.87473115       0.00000000       0.00000000       0.00000000
Nb      21.64448108      16.53297939      21.07566904       0.00000000       0.00000000       0.00000000
Nb       1.58340221      20.10258899       1.53504533       0.00000000       0.00000000       0.00000000
Nb       7.58393384      22.12515289       3.92783995       0.00000000       0.00000000       0.00000000
Nb      12.26607568       3.99865320       1.17281829       0.00000000       0.00000000       0.00000000
Nb      13.43832598      19.91255855       1.92658784       0.00000000       0.00000000       0.00000000
Nb       6.67004511      18.99306736       4.60987947       0.00000000       0.00000000       0.00000000
Nb       4.73795272      18.78408064       0.47721727       0.00000000       0.00000000       0.00000000
Nb      22.47071402      16.22627993       5.40538737       0.00000000       0.00000000       0.00000000
Nb       9.55389388      17.76238828       3.98065237       0.00000000       0.00000000       0.00000000
Nb       3.80888538       3.26920498       0.20482966       0.00000000       0.00000000       0.00000000
Nb      18.11393686       8.63801780       6.22411780       0.00000000       0.00000000       0.00000000
Nb      22.60049980      19.52438840      20.35149921       0.00000000       0.00000000       0.00000000
Nb       8.38743303       6.05406846      18.12038349       0.00000000       0.00000000       0.00000000
Nb      17.89220980      16.85934355       2.51411113       0.00000000       0.00000000       0.00000000
Nb       9.42791195      20.19804993       5.99579097       0.00000000       0.00000000       0.00000000
Nb      19.26183398      12.98787973      17.71650890       0.00000000       0.00000000       0.00000000
Nb      20.62958293      18.28977463       3.91709597       0.00000000       0.00000000       0.00000000
Nb       8.63784557      14.81929363       4.38473205       0.00000000       0.00000000       0.00000000
Nb       1.67167897      15.50365904      20.35492182       0.00000000       0.00000000       0.00000000
Nb      17.83565212       4.24932130       1.60976682       0.00000000       0.00000000       0.00000000
Nb      22.82869987      22.06406272      22.54649941       0.00000000       0.00000000       0.00000000
Nb      14.10978090      10.43513265       0.25796734       0.00000000       0.00000000       0.00000000
Nb       3.76356284      21.31594251      18.71861104       0.00000000       0.00000000       0.00000000
Nb      18.87237730      19.81376998       1.98695108       0.00000000       0.00000000       0.00000000
Nb       4.75931019      13.16963116       6.35965003       0.00000000       0.00000000       0.00000000
Nb      19.63245673       4.59508367       5.90976700       0.00000000       0.00000000       0.00000000
Nb      21.62132610       5.91004262      22.45958295       0.00000000       0.00000000       0.00000000
Nb      10.43220225       0.26875332       5.15671787       0.00000000       0.00000000       0.00000000
Nb      12.03138205       8.50395358       5.79862249       0.00000000       0.00000000       0.00000000
Nb      13.16427346      22.07521370       4.24188936       0.00000000       0.00000000       0.00000000
Nb       8.43393762       8.11702404      20.36475797       0.00000000       0.00000000       0.00000000
Nb       5.40938223       9.15958439      21.55973911       0.00000000       0.00000000       0.00000000
Nb      11.51297197       0.96273412       2.38692415       0.00000000       0.00000000       0.00000000
Nb      19.54596230       2.47352091       3.53224413       0.00000000       0.00000000       0.00000000
Nb       3.49629398      18.22284799       3.50308994       0.00000000       0.00000000       0.00000000
Nb       5.34874641      11.46760857       0.93462080       0.00000000       0.00000000       0.00000000
Nb       7.20003458       5.36767904      20.96575638       0.00000000       0.00000000       0.00000000
Nb      20.11405492      20.99024602      21.57094150       0.00000000       0.00000000       0.00000000
Nb      13.10044755       7.38044329       0.83050466       0.00000000       0.00000000       0.00000000
Ta       2.61100012      15.45433236       4.20243572       0.00000000       0.00000000       0.00000000
Ta      16.56260111       1.21905501      18.25633949       0.00000000       0.00000000       0.00000000
Ta       9.57464693      15.67336142       1.56897348       0.00000000       0.00000000       0.00000000
Ta      20.81546336       0.81741072      20.90544821       0.00000000       0.00000000       0.00000000
Ta      20.79786488      20.57114067       6.06684232       0.00000000       0.00000000       0.00000000
Ta       9.46378924      21.10578128      18.56694026       0.00000000       0.00000000       0.00000000
Ta      13.61822851      17.21946772      22.78878794       0.00000000       0.00000000       0.00000000
Ta      12.04579615      12.38126953      21.20393230       0.00000000       0.00000000       0.00000000
Ta      22.66758713      13.87425958       3.51528265       0.00000000       0.00000000       0.00000000
Ta      13.12552511      13.21336415      18.26377177       0.00000000       0.00000000       0.00000000
Ta       4.41990840      21.42116564       2.81162391       0.00000000       0.00000000       0.00000000
Ta      17.03994109      16.09469172       5.47778640       0.00000000       0.00000000       0.00000000
Ta      19.68750074      18.25910589      18.98681172       0.00000000       0.00000000       0.00000000
Ta      10.21575456       8.54928966       1.73200564       0.00000000       0.00000000       0.00000000
Ta       7.54135159      13.22745038      17.94194624       0.00000000       0.00000000       0.00000000
Ta       8.31628603      12.53279124       2.20630190       0.00000000       0.00000000       0.00000000
Ta      16.98456333      21.54423842       0.20023646       0.00000000       0.00000000       0.00000000
Ta       7.76499651      12.10313931       5.61430738       0.00000000       0.00000000       0.00000000
Ta      18.13804203       1.98710401      22.19032697       0.00000000       0.00000000       0.00000000
Ta       8.22156215       4.79833989       5.16645277       0.00000000       0.00000000       0.00000000
Ta      18.18075094      22.29790730      20.09964807       0.00000000       0.00000000       0.00000000
Ta       7.38299604       7.42977620       0.39387465       0.00000000       0.00000000       0.00000000
Ta       2.99183983       6.07378178      17.85826477       0.00000000       0.00000000       0.00000000
Ta       4.71088581       1.96206695      17.76065891       0.00000000       0.00000000       0.00000000
Ta      11.68545922      21.68108455       0.20928913       0.00000000       0.00000000       0.00000000
Ta      10.98448143      11.57376665       1.01174239       0.00000000       0.00000000       0.00000000
Ta      14.75062860       9.30907403      17.75852088       0.00000000       0.00000000       0.00000000
Ta       2.16690085       3.26754030      18.80816667       0.00000000       0.00000000       0.00000000
Ta      14.95110481       0.78022924      20.88923446       0.00000000       0.00000000       0.00000000
Ta       7.73469149       1.43112904       6.15056217       0.00000000       0.00000000       0.00000000
Ta      20.14087585      12.66999745       2.40166326       0.00000000       0.00000000       0.00000000
Ta      17.93265074      14.69405592       0.07902599       0.00000000       0.00000000       0.00000000
Ta       8.09266907      10.10482856      22.87141196       0.00000000       0.00000000       0.00000000
Ta      19.52083615       9.75275898       3.15653401       0.00000000       0.00000000       0.00000000
Ta       1.27243455      17.89032060      22.39625247       0.00000000       0.00000000       0.00000000
Ta       2.44300273      18.22701500      19.51540763       0.00000000       0.00000000       0.00000000
Ta       7.53356662      15.05748705      20.28017366       0.00000000       0.00000000       0.00000000
Ta      14.25108916      12.78402296       2.19843641       0.00000000       0.00000000       0.00000000
Ta       3.62495805       7.92657308       4.59636638       0.00000000       0.00000000       0.00000000
Ta      22.02488216       1.45495547      18.00761107       0.00000000       0.00000000       0.00000000
Ta       4.68807972      14.30178519      19.02921146       0.00000000       0.00000000       0.00000000
Ta      13.98490690       8.22598933      20.66604799       0.00000000       0.00000000       0.00000000
Ta      22.16703858      21.67281267       2.40544308       0.00000000       0.00000000       0.00000000
Ta       5.26843678      13.51288285       3.26606230       0.00000000       0.00000000       0.00000000
Ta      11.40273018      17.26036280      18.33310340       0.00000000       0.00000000       0.00000000
Ta       0.90193911      11.77238348      21.21662755       0.00000000       0.00000000       0.00000000
Ta      14.43930566      14.91364281       4.73214058       0.00000000       0.00000000       0.00000000
Ta      13.13911582       2.99327737      19.04264082       0.00000000       0.00000000       0.00000000
Ta       7.27827373       9.62201112       2.95155847       0.00000000       0.00000000       0.00000000
Ta      16.18460702       3.55767653      20.33978536       0.00000000       0.00000000       0.00000000
Ta       6.65928449      10.02844413      18.35856572       0.00000000       0.00000000       0.00000000
Ta      22.59105776       5.98137126       6.38766246       0.00000000       0.00000000       0.00000000
Ta      16.22845456      16.32322467      21.17196823       0.00000000       0.00000000       0.00000000
Ta       0.07948029       1.50466877       2.20184736       0.00000000       0.00000000       0.00000000
Ta      14.29177124      22.89099111       1.34471747       0.00000000       0.00000000       0.00000000
Ta       9.43488882       0.33912440      20.83407584       0.00000000       0.00000000       0.00000000
Ta       2.70169932      20.46946459      21.72292758       0.00000000       0.00000000       0.00000000
Ta       1.53686970       4.91707449      21.42204992       0.00000000       0.00000000       0.00000000
Ta      11.28024461       9.21988273      21.98465781       0.00000000       0.00000000       0.00000000
Ta      11.40000381       6.92268509      19.12855659       0.00000000       0.00000000       0.00000000
Ta       6.41380864      12.13864021      21.19513258       0.00000000       0.00000000       0.00000000
Ti       1.74012604      22.80966408       4.01476058       0.00000000       0.00000000       0.00000000
Ti      16.06719400       0.39271061       5.42950916       0.00000000       0.00000000       0.00000000
Ti      16.70269157       6.84375369      19.71220429       0.00000000       0.00000000       0.00000000
Ti       2.63012888       4.87723324       5.61376838       0.00000000       0.00000000       0.00000000
Ti       0.60372745      18.98296092       5.35544887       0.00000000       0.00000000       0.00000000
Ti       4.74569336       6.22094576      22.35335793       0.00000000       0.00000000       0.00000000
Ti      21.20855124      21.76043229      18.76201988       0.00000000       0.00000000       0.00000000
Ti       6.53772947      16.79752069       2.74401637       0.00000000       0.00000000       0.00000000
Ti       8.65362874      22.78438246       0.86310493       0.00000000       0.00000000       0.00000000
Ti       9.51305942       3.61739764      22.47882709       0.00000000       0.00000000       0.00000000
Ti      15.55083776      15.56882511       1.69834088       0.00000000       0.00000000       0.00000000
Ti       5.72029703       3.05437736       4.97785556       0.00000000       0.00000000       0.00000000
Ti      22.85074381      11.62679219       1.16478049       0.00000000       0.00000000       0.00000000
Ti       5.80366099      15.82622644       5.57936968       0.00000000       0.00000000       0.00000000
Ti       2.07706788      11.86623290       5.28235502       0.00000000       0.00000000       0.00000000
Ti      21.91462736       6.45415475      18.90605513       0.00000000       0.00000000       0.00000000
Ti      10.25995704       4.31590499      19.92572002       0.00000000       0.00000000       0.00000000
Ti      20.99618605      13.38834859      21.89024882       0.00000000       0.00000000       0.00000000
Ti      17.09891958      13.83785372       3.44337613       0.00000000       0.00000000       0.00000000
Ti       9.41854407      11.22827334      19.93745130       0.00000000       0.00000000       0.00000000
Ti      21.78353233      14.29458099      19.04018890       0.00000000       0.00000000       0.00000000
Ti       8.98850142      13.19766553      22.15962178       0.00000000       0.00000000       0.00000000
Ti       8.69305484       2.49440078       3.12447864       0.00000000       0.00000000       0.00000000
Ti       2.93052043      10.34576942       0.01987729       0.00000000       0.00000000       0.00000000
Ti      22.22323823       1.07423635       4.73622969       0.00000000       0.00000000       0.00000000
Ti       4.65729932       8.32285941       1.50016228       0.00000000       0.00000000       0.00000000
Ti      20.93279269       7.66716123       4.79034765       0.00000000       0.00000000       0.00000000
Ti      15.32634770      11.76812305      19.86601454       0.00000000       0.00000000       0.00000000
Ti       9.16219645       7.63752052       4.76944598       0.00000000       0.00000000       0.00000000
Ti      16.25813168      18.64113315       0.58238258       0.00000000       0.00000000       0.00000000
Ti       3.90528593       5.56852043       2.42183339       0.00000000       0.00000000       0.00000000
Ti      15.29027036      13.57270440      22.25949465       0.00000000       0.00000000       0.00000000
Ti       6.55516011      22.24123131      19.77185847       0.00000000       0.00000000       0.00000000
Ti       6.77047036      20.00230657      17.75198556       0.00000000       0.00000000       0.00000000
Ti       4.01220670       0.56000478      20.26381495       0.00000000       0.00000000       0.00000000
Ti      10.04040295       6.35136729      22.25225506       0.00000000       0.00000000       0.00000000
Zr       0.08744858       3.79684027       4.60229747       0.00000000       0.00000000       0.00000000
Zr       0.89105053      12.91190747      20.74276196       0.00000000       0.00000000       0.00000000
Zr      13.17667537      11.62799071       5.50474530       0.00000000       0.00000000       0.00000000
Zr      13.18616374       5.27016847      21.40079538       0.00000000       0.00000000       0.00000000
Zr       5.67968807       1.50161048       2.20130063       0.00000000       0.00000000       0.00000000
Zr      13.92324361      18.41874786      19.45394170       0.00000000       0.00000000       0.00000000
Zr       0.98743844       4.47542346       1.53382038       0.00000000       0.00000000       0.00000000
Zr      19.96479909      15.20262620       4.66338607       0.00000000       0.00000000       0.00000000
Zr       1.08948835       8.96517482       5.94692220       0.00000000       0.00000000       0.00000000
Zr      12.26347755      14.32460029       0.69084518       0.00000000       0.00000000       0.00000000
Zr      14.06600347       2.35909942       3.46669689       0.00000000       0.00000000       0.00000000
Zr      21.80297064      18.95995371       0.42942153       0.00000000       0.00000000       0.00000000
Zr       2.80481905       8.06744985      20.55146525       0.00000000       0.00000000       0.00000000
Zr       6.59805174      14.39232170       0.66639885       0.00000000       0.00000000       0.00000000
Zr      13.31971080      15.24797278      20.42706568       0.00000000       0.00000000       0.00000000
Zr      15.07171918      20.42266759       6.18164222       0.00000000       0.00000000       0.00000000
Zr      18.94307168      11.99545943       5.35606112       0.00000000       0.00000000       0.00000000
Zr       7.64134890       2.87380570      18.98627193       0.00000000       0.00000000       0.00000000
Zr      16.89758649      17.29786595      17.96225983       0.00000000       0.00000000       0.00000000
Zr      15.84141552      20.97750959       3.26598462       0.00000000       0.00000000       0.00000000
Zr       4.62562644      10.84982718       4.31350762       0.00000000       0.00000000       0.00000000
Zr      12.43146350      19.14836149       5.32176590       0.00000000       0.00000000       0.00000000
Zr       8.48022336      18.15085752      19.47070205       0.00000000       0.00000000       0.00000000
Zr      18.95877513      22.21622227       4.42579646       0.00000000       0.00000000       0.00000000
Zr      21.93218874      10.57739355       4.24126211       0.00000000       0.00000000       0.00000000
Zr       2.64554009       0.19552417       1.03102187       0.00000000       0.00000000       0.00000000
Zr      20.50082822      15.93321626       1.45143180       0.00000000       0.00000000       0.00000000
Zr       5.44260754      21.81448137      22.65071182       0.00000000       0.00000000       0.00000000
Zr       4.54150882       0.63049714       5.26166385       0.00000000       0.00000000       0.00000000
Zr      14.11543901       5.82311816      18.40562035       0.00000000       0.00000000       0.00000000
Zr      21.74165880      12.87472491       6.38055768       0.00000000       0.00000000       0.00000000
Zr       2.18077003      13.09444415      17.80008066       0.00000000       0.00000000       0.00000000
Zr      22.57718760      17.12416657      17.94230041       0.00000000       0.00000000       0.00000000
Zr      21.85450102       3.60090512      20.40339464       0.00000000       0.00000000       0.00000000
Zr      10.42935330       1.62985329      17.86198668       0.00000000       0.00000000       0.00000000
Zr      21.15065295      10.92317689      19.44149219       0.00000000       0.00000000       0.00000000
Zr       1.97195923       7.47633882       0.33065744       0.00000000       0.00000000       0.00000000
Zr      19.59878579       7.95878419      20.47996622       0.00000000       0.00000000       0.00000000
Zr       8.62116973      20.64702970      21.59397910       0.00000000       0.00000000       0.00000000
Zr       6.72521109       2.27440798      21.88066705       0.00000000       0.00000000       0.00000000
Zr      16.85049020      19.19884419      20.56034210       0.00000000       0.00000000       0.00000000
Zr      19.05789739       2.42405879      19.07973687       0.00000000       0.00000000       0.00000000
Zr       9.99565217      14.01473939      19.25843602       0.00000000       0.00000000       0.00000000
Zr       1.65137890       9.82237918       2.75793425       0.00000000       0.00000000       0.00000000
C        9.33630219       7.20448200      11.83713501       0.00000000       0.00000000       0.00000000
C       20.10783333       9.49955861      14.23350056       0.00000000       0.00000000       0.00000000
C        4.65705112      15.39976039      16.60795539       0.00000000       0.00000000       0.00000000
C       21.28998457       8.32850982      12.17739793       0.00000000       0.00000000       0.00000000
C       16.92458905      16.74280132       7.74750151       0.00000000       0.00000000       0.00000000
C       13.94799014      18.65107679      12.52386354       0.00000000       0.00000000       0.00000000
C       21.81519614      13.88675750      14.82929491       0.00000000       0.00000000       0.00000000
C       20.01037059      19.14935490       6.59673860       0.00000000       0.00000000       0.00000000
C        8.93808640       0.22907587      13.87850342       0.00000000       0.00000000       0.00000000
C        5.88790602      15.18672769      10.33398224       0.00000000       0.00000000       0.00000000
C       21.66988832       5.41566749      16.04340263       0.00000000       0.00000000       0.00000000
C        0.69645344      12.12929372      10.06707708       0.00000000       0.00000000       0.00000000
C       16.22780419       7.38750725      13.35787340       0.00000000       0.00000000       0.00000000
C       15.14810986       9.76820721       7.72999756       0.00000000       0.00000000       0.00000000
C       17.93381005       2.64388838      15.12768230       0.00000000       0.00000000       0.00000000
C        1.32079703      15.35781473      16.99107460       0.00000000       0.00000000       0.00000000
C       18.15739671      19.73123102      11.58068171       0.00000000       0.00000000       0.00000000
C       21.06317764       9.05473616       6.57528649       0.00000000       0.00000000       0.00000000
C        3.62095422       6.36445933       9.62136969       0.00000000       0.00000000       0.00000000
C       11.56409669       9.81388252      15.86913220       0.00000000       0.00000000       0.00000000
C       15.63885748      17.87657267      15.12906421       0.00000000       0.00000000       0.00000000
C        1.16931539      19.81614372       7.99565335       0.00000000       0.00000000       0.00000000
C       19.99301721       4.96737153      13.37231447       0.00000000       0.00000000       0.00000000
C        3.16749047      12.54295896      10.65986835       0.00000000       0.00000000       0.00000000
C        8.10562315      16.23322380      11.25052458       0.00000000       0.00000000       0.00000000
C       17.28914991       0.02991795      10.80579514       0.00000000       0.00000000       0.00000000
C       22.16491158       2.75224912      11.59478204       0.00000000       0.00000000       0.00000000
C       17.16818813      18.33004734      17.11775130       0.00000000       0.00000000       0.00000000
C        2.98647554       0.78035423      13.46434727       0.00000000       0.00000000       0.00000000
C        6.82464348       1.91393752       8.65759826       0.00000000       0.00000000       0.00000000
C        4.84328267       6.83083417       6.51590272       0.00000000       0.00000000       0.00000000
C       11.19044225      14.01868066      11.49038850       0.00000000       0.00000000       0.00000000
C        3.38034010       3.89050491       8.22798659       0.00000000       0.00000000       0.00000000
C        5.86095698      14.49731052       6.74330054       0.00000000       0.00000000       0.00000000
C        8.63282555      14.56903107      17.26781739       0.00000000       0.00000000       0.00000000
C       15.80167218      11.91721351      16.79631926       0.00000000       0.00000000       0.00000000
C       21.33691613       5.42475896       8.34094268       0.00000000       0.00000000       0.00000000
C        8.81119525      16.93490071       7.29771706       0.00000000       0.00000000       0.00000000
C       18.91142382      13.73270782      15.83261844       0.00000000       0.00000000       0.00000000
C        5.57552723       1.01711987      12.30220051       0.00000000       0.00000000       0.00000000
C        8.22847518      13.09204768      12.89473097       0.00000000       0.00000000       0.00000000
C       17.96191566      12.89776108       6.61382020       0.00000000       0.00000000       0.00000000
C       20.31905362       5.80805997       9.30734556       0.00000000       0.00000000       0.00000000
C       21.56675944      12.14222232      12.09330426       0.00000000       0.00000000       0.00000000
C       11.45251422      11.45251422      11.96281572       0.00000000       0.00000000       0.00000000
C        4.02336942      10.53011143       9.86277186       0.00000000       0.00000000       0.00000000
C        4.58424407       6.42436067      14.37616467       0.00000000       0.00000000       0.00000000
C       19.18417577      16.71695192      15.21914005       0.00000000       0.00000000       0.00000000
C        8.42187464       8.78071785      14.01693314       0.00000000       0.00000000       0.00000000
C        8.75074031      17.57856162       8.56440155       0.00000000       0.00000000       0.00000000
C       15.90445665       6.15779400       8.96959284       0.00000000       0.00000000       0.00000000
C       15.69710820       1.78938593      12.34118680       0.00000000       0.00000000       0.00000000
C       20.02178664       3.54325507       6.54445595       0.00000000       0.00000000       0.00000000
C       21.19172546       7.97224397      10.94929591       0.00000000       0.00000000       0.00000000
C        7.17737736       8.00816964      10.15730083       0.00000000       0.00000000       0.00000000
C       12.05535037      15.85151015       7.96573037       0.00000000       0.00000000       0.00000000
C       14.49015933      12.07351998      14.45403170       0.00000000       0.00000000       0.00000000
C        6.63642816       5.10072439      13.07972084       0.00000000       0.00000000       0.00000000
C        5.80768773      12.53320564      16.48766994       0.00000000       0.00000000       0.00000000
C       10.82476561      18.40790596      11.00074970       0.00000000       0.00000000       0.00000000
C        4.70745220       8.04880230       6.48296575       0.00000000       0.00000000       0.00000000
C       17.30663285       4.39323291      11.33447305       0.00000000       0.00000000       0.00000000
C        5.70365905       0.82131177       9.54967640       0.00000000       0.00000000       0.00000000
C       19.07778998      13.36748032       9.37918136       0.00000000       0.00000000       0.00000000
C       12.61135790      19.05342848      17.45509442       0.00000000       0.00000000       0.00000000
C       19.46107600      17.29797776      13.85772678       0.00000000       0.00000000       0.00000000
C        7.23860643      18.71310005      17.42663767       0.00000000       0.00000000       0.00000000
C       14.93521537       6.86540401       9.77245573       0.00000000       0.00000000       0.00000000
C        9.94828973       2.75268351       7.90354142       0.00000000       0.00000000       0.00000000
C        6.98801109      12.13115130      17.00916026       0.00000000       0.00000000       0.00000000
C       17.73618418       9.73133951      16.39116830       0.00000000       0.00000000       0.00000000
C        2.36855743      20.63922551      16.25627928       0.00000000       0.00000000       0.00000000
C       20.95206770      15.87700948       6.49068413       0.00000000       0.00000000       0.00000000
C       16.52774918       3.05057746      15.31807045       0.00000000       0.00000000       0.00000000
C        4.53178272      19.24046146      15.76127054       0.00000000       0.00000000       0.00000000
C        7.73824060      19.92209508      16.98834794       0.00000000       0.00000000       0.00000000
C       20.97535443       0.49237363      12.67126137       0.00000000       0.00000000       0.00000000
C       15.67240273      13.16217301       8.80242047       0.00000000       0.00000000       0.00000000
C       15.28805576      16.74138863       9.64096559       0.00000000       0.00000000       0.00000000
C       22.07378114       0.22526350       9.50121810       0.00000000       0.00000000       0.00000000
C        5.32908407       8.71224387      11.84387961       0.00000000       0.00000000       0.00000000
C        0.47325173      19.71998279      10.87488595       0.00000000       0.00000000       0.00000000
C       13.24641760      16.01002532      15.42333528       0.00000000       0.00000000       0.00000000
C        2.64951908      14.91844596      13.80178147       0.00000000       0.00000000       0.00000000
C        6.36350831       1.77890339      17.11555754       0.00000000       0.00000000       0.00000000
C        0.60423086       1.80313396      16.45421835       0.00000000       0.00000000       0.00000000
C       11.89848586      15.20539045      15.09747592       0.00000000       0.00000000       0.00000000
C       15.87743803      18.49077406      13.22166038       0.00000000       0.00000000       0.00000000
C       18.05301056       4.31818660       7.77161275       0.00000000       0.00000000       0.00000000
C       18.40101122      13.72153387      14.36538630       0.00000000       0.00000000       0.00000000
C       11.39835589      13.03570797      12.53677288       0.00000000       0.00000000       0.00000000
C       13.26214088       6.72228315       9.52634878       0.00000000       0.00000000       0.00000000
C        6.83143013       4.41029474      10.23429205       0.00000000       0.00000000       0.00000000
C        1.15383071       8.03891816      11.46766390       0.00000000       0.00000000       0.00000000
C       17.71030995       8.86951492      10.58028312       0.00000000       0.00000000       0.00000000
C        7.37890111      15.33038619      14.28120208       0.00000000       0.00000000       0.00000000
C        2.23522596       3.78001876      11.32985493       0.00000000       0.00000000       0.00000000
C        2.62465314       9.57485637      14.22297839       0.00000000       0.00000000       0.00000000
C       10.02656381       4.25040572       9.53809101       0.00000000       0.00000000       0.00000000
C       12.91641966       1.58760690       9.30874427       0.00000000       0.00000000       0.00000000
C        2.32957233       3.41680446       7.61123798       0.00000000       0.00000000       0.00000000
C        9.39708509      20.56760870      17.17934200       0.00000000       0.00000000       0.00000000
C        8.10807953      10.00034117       7.40545166       0.00000000       0.00000000       0.00000000
C        0.46912085      18.21020099      14.33065333       0.00000000       0.00000000       0.00000000
C        7.69871602      14.17427758      13.57466954       0.00000000       0.00000000       0.00000000
C        9.40063297       1.87181294      11.56117826       0.00000000       0.00000000       0.00000000
C        9.69442438      10.46182712       8.18140413       0.00000000       0.00000000       0.00000000
C       10.17812502      20.72508346      13.04300670       0.00000000       0.00000000       0.00000000
C        2.23586490       9.61258668      17.09083554       0.00000000       0.00000000       0.00000000
C       13.84599346       6.56718028      13.70634964       0.00000000       0.00000000       0.00000000
C       11.26331284      15.01982309      10.53391142       0.00000000       0.00000000       0.00000000
C        0.91792688      10.13357315       7.43059602       0.00000000       0.00000000       0.00000000
C       18.18758670       3.51130586      11.63016943       0.00000000       0.00000000       0.00000000
C        5.87086114      18.21423517      13.88450773       0.00000000       0.00000000       0.00000000
C       15.21656912       2.67248759       8.78899242       0.00000000       0.00000000       0.00000000
C        2.34758924      19.13299926       8.38960994       0.00000000       0.00000000       0.00000000
C        2.72167701      17.78574297      11.70959597       0.00000000       0.00000000       0.00000000
C       16.03588970      13.50143439      12.56731840       0.00000000       0.00000000       0.00000000
C        2.63380387      12.23726665      14.83248038       0.00000000       0.00000000       0.00000000
C        9.66162359      11.36750949       9.29774889       0.00000000       0.00000000       0.00000000
C       22.12168563      11.83095980      11.00662586       0.00000000       0.00000000       0.00000000
C       10.36922817       8.35525591      11.33878673       0.00000000       0.00000000       0.00000000
C       12.45245209      19.50505144       8.88061767       0.00000000       0.00000000       0.00000000
C        9.43283936      18.43133845      13.85041577       0.00000000       0.00000000       0.00000000
C        9.66268797       2.63693031       6.59544776       0.00000000       0.00000000       0.00000000
C        3.05678697       3.72451879      15.28937782       0.00000000       0.00000000       0.00000000
C       11.02642053       5.31115151      16.01139631       0.00000000       0.00000000       0.00000000
C       14.56579179      12.99954258      13.34809281       0.00000000       0.00000000       0.00000000
C       12.96046195      11.84376464       7.44670390       0.00000000       0.00000000       0.00000000
C       16.24210520      13.46161858      15.71290489       0.00000000       0.00000000       0.00000000
C        3.23380222      18.85785660      11.19177900       0.00000000       0.00000000       0.00000000
C       17.64849928      10.44104436      13.24836890       0.00000000       0.00000000       0.00000000
C       18.96559344      12.16935513       9.97991275       0.00000000       0.00000000       0.00000000
C        4.90768401      17.60427372       7.20739873       0.00000000       0.00000000       0.00000000
C       22.52371198      17.66291642      16.86726277       0.00000000       0.00000000       0.00000000
C       20.61768737      17.62166056      11.15370481       0.00000000       0.00000000       0.00000000
C        4.86838122       5.30634169      13.45000324       0.00000000       0.00000000       0.00000000
C       17.79571708       7.08449812       7.80511800       0.00000000       0.00000000       0.00000000
C       15.75979334      17.54239347       8.30865646       0.00000000       0.00000000       0.00000000
C        0.83366586       6.15674949      16.48844992       0.00000000       0.00000000       0.00000000
C       10.56402411      10.30807248      16.62191810       0.00000000       0.00000000       0.00000000
C       16.36329772      15.08592302      15.75955638       0.00000000       0.00000000       0.00000000
C       13.26907833      20.65435691      14.99931445       0.00000000       0.00000000       0.00000000
C        8.78048022       1.19410268      14.92314439       0.00000000       0.00000000       0.00000000
C       20.78958171       9.09132358      15.44180380       0.00000000       0.00000000       0.00000000
C        8.03222954       1.71779075      16.98816902       0.00000000       0.00000000       0.00000000
C       21.28735285       2.10121706      15.50959972       0.00000000       0.00000000       0.00000000
C       10.51709654       5.84129564      14.73326568       0.00000000       0.00000000       0.00000000
C       14.84972244       7.46455043      12.94175335       0.00000000       0.00000000       0.00000000
C        1.65334407       1.39822231      13.18877262       0.00000000       0.00000000       0.00000000
C        6.77396104      15.82048812      11.10413136       0.00000000       0.00000000       0.00000000
C        6.71237604       4.19007542      14.50983927       0.00000000       0.00000000       0.00000000
C       17.70912993       0.96316533      16.50961093       0.00000000       0.00000000       0.00000000
C       21.61158284      12.86211328      15.85424297       0.00000000       0.00000000       0.00000000
C       20.31034944       0.70501943       6.55478768       0.00000000       0.00000000       0.00000000
Hf      12.45615991      19.54861630      13.39298915       0.00000000       0.00000000       0.00000000
Hf      14.06977030       5.74987157      11.73889746       0.00000000       0.00000000       0.00000000
Hf       3.30617609       8.14736903      13.00489221       0.00000000       0.00000000       0.00000000
Hf       3.98373392       9.83431397       7.30498643       0.00000000       0.00000000       0.00000000
Hf       7.59246288      19.82724176       8.84486731       0.00000000       0.00000000       0.00000000
Hf      19.89573500      19.93545203      11.12423717       0.00000000       0.00000000       0.00000000
Hf      13.91030892       2.70958731      16.57139998       0.00000000       0.00000000       0.00000000
Hf      12.07838095       7.55681877      15.45596990       0.00000000       0.00000000       0.00000000
Hf      13.15780160       8.40185381       7.41453096       0.00000000       0.00000000       0.00000000
Hf      12.78205383      17.47512597      10.78217582       0.00000000       0.00000000       0.00000000
Hf       8.45951068       5.28064451      10.89508249       0.00000000       0.00000000       0.00000000
Hf       8.99676199       6.27842412      16.14101771       0.00000000       0.00000000       0.00000000
Hf      17.97635376      20.26183474      17.10174788       0.00000000       0.00000000       0.00000000
Hf      20.12021773       3.31221298       8.54166840       0.00000000       0.00000000       0.00000000
Hf       9.28704258       3.54324760      13.34726027       0.00000000       0.00000000       0.00000000
Hf       2.18767116       2.67859883       9.79953430       0.00000000       0.00000000       0.00000000
Hf      17.09790264      16.33891329      14.39025606       0.00000000       0.00000000       0.00000000
Hf      15.66689267       0.92312271      14.20195956       0.00000000       0.00000000       0.00000000
Hf      15.25219541      14.99286990      11.02373120       0.00000000       0.00000000       0.00000000
Hf       3.16576057      15.01417314      11.26390445       0.00000000       0.00000000       0.00000000
Hf      13.12266082      14.16582142       7.02865407       0.00000000       0.00000000       0.00000000
Hf      19.46232593      13.78775154      11.65613434       0.00000000       0.00000000       0.00000000
Hf       5.38895830       6.04032384      11.28197678       0.00000000       0.00000000       0.00000000
Hf       9.00510383      10.77694647      13.45428681       0.00000000       0.00000000       0.00000000
Hf       6.83843193      20.26461518      12.86835779       0.00000000       0.00000000       0.00000000
Hf       8.40023962      12.82698984      10.64581609       0.00000000       0.00000000       0.00000000
Hf       4.76368261       0.18519900       7.34469761       0.00000000       0.00000000       0.00000000
Hf       3.41000967       8.24142541      10.15149843       0.00000000       0.00000000       0.00000000
Hf      10.31237813      17.43161832      15.60274419       0.00000000       0.00000000       0.00000000
Nb       1.30282264      17.04200867      13.14732730       0.00000000       0.00000000       0.00000000
Nb      18.06750076       5.55767175       9.05090928       0.00000000       0.00000000       0.00000000
Nb       2.51310442       5.96089533      14.80303362       0.00000000       0.00000000       0.00000000
Nb      17.04511865       5.47318916       6.49486857       0.00000000       0.00000000       0.00000000
Nb       5.96373972      10.24604178       9.70415024       0.00000000       0.00000000       0.00000000
Nb      20.13823023       0.45562571      14.44700176       0.00000000       0.00000000       0.00000000
Nb       7.39029415      16.99237509      13.27850640       0.00000000       0.00000000       0.00000000
Nb      16.24118105       2.07120195      10.48728852       0.00000000       0.00000000       0.00000000
Nb       9.03702728      18.93326599      11.54188419       0.00000000       0.00000000       0.00000000
Nb      20.58259661       7.52749408      14.19208283       0.00000000       0.00000000       0.00000000
Nb      14.01554878      11.92290338       9.25944529       0.00000000       0.00000000       0.00000000
Nb      15.99595677      11.44137910       7.19172538       0.00000000       0.00000000       0.00000000
Nb       3.10041633       3.09568457      13.07097040       0.00000000       0.00000000       0.00000000
Nb      22.39043022       3.93808554      14.68881486       0.00000000       0.00000000       0.00000000
Nb      19.02293322       9.31173148      12.30161534       0.00000000       0.00000000       0.00000000
Nb       9.05286030      12.84679961      16.78775721       0.00000000       0.00000000       0.00000000
Nb       6.38053112       2.25284230      13.52194418       0.00000000       0.00000000       0.00000000
Nb      11.39336846      20.63875201      16.30224514       0.00000000       0.00000000       0.00000000
Nb       7.03400715      12.30609270      14.81722267       0.00000000       0.00000000       0.00000000
Nb       1.00524513       8.61564347      16.09778262       0.00000000       0.00000000       0.00000000
Nb      11.68743961       9.64880092       9.53328661       0.00000000       0.00000000       0.00000000
Nb       0.46086394       9.61120929      10.23111788       0.00000000       0.00000000       0.00000000
Nb      11.21513594       6.34482723      12.36041875       0.00000000       0.00000000       0.00000000
Nb      10.33046642      19.79318474       7.62343437       0.00000000       0.00000000       0.00000000
Nb      19.61308020      17.51800469      17.04162714       0.00000000       0.00000000       0.00000000
Nb       4.46098863      15.71566708      14.63055749       0.00000000       0.00000000       0.00000000
Nb      21.00261017       1.39035293      10.56102685       0.00000000       0.00000000       0.00000000
Nb      12.40303134       0.06222107      15.62747859       0.00000000       0.00000000       0.00000000
Nb       2.59181404       0.96251629      16.38979853       0.00000000       0.00000000       0.00000000
Nb       7.25441351       6.64182071      13.98409512       0.00000000       0.00000000       0.00000000
Nb      21.90059141       1.15025217       7.57132826       0.00000000       0.00000000       0.00000000
Nb       7.02345052       0.09414416      15.55895898       0.00000000       0.00000000       0.00000000
Nb      14.32641729      16.39760625       7.66434029       0.00000000       0.00000000       0.00000000
Nb      17.82613176       8.51003447      14.55264186       0.00000000       0.00000000       0.00000000
Nb       6.27959979      14.28883559      16.63053672       0.00000000       0.00000000       0.00000000
Nb      10.18596925      11.89859700       7.12428816       0.00000000       0.00000000       0.00000000
Nb       0.51312926       9.22042057      13.49708604       0.00000000       0.00000000       0.00000000
Nb       5.82662697       7.30605147      15.85402803       0.00000000       0.00000000       0.00000000
Ta       5.90844498      18.48947988      10.92676552       0.00000000       0.00000000       0.00000000
Ta       3.10503769      17.63422738       9.33210541       0.00000000       0.00000000       0.00000000
Ta       5.24767744       4.37997591      15.82488282       0.00000000       0.00000000       0.00000000
Ta      10.20670345      15.23261277       7.62123565       0.00000000       0.00000000       0.00000000
Ta       9.08846944      20.26511784      15.03842809       0.00000000       0.00000000       0.00000000
Ta       3.44671117      10.77893174      12.03239591       0.00000000       0.00000000       0.00000000
Ta       0.85518802      16.56251011       7.26806122       0.00000000       0.00000000       0.00000000
Ta      19.38111588      17.28684778       6.64635148       0.00000000       0.00000000       0.00000000
Ta      13.99296203      17.03894590      13.43244367       0.00000000       0.00000000       0.00000000
Ta      10.30516769       8.61582154       6.40733607       0.00000000       0.00000000       0.00000000
Ta       4.37506600      13.00785607      14.07745118       0.00000000       0.00000000       0.00000000
Ta      20.15042050       3.01456898      12.64191657       0.00000000       0.00000000       0.00000000
Ta      10.96828261       1.28287654      10.37984499       0.00000000       0.00000000       0.00000000
Ta      21.31803857      12.63242136       9.38253885       0.00000000       0.00000000       0.00000000
Ta      10.32099162       3.33401190      16.45303969       0.00000000       0.00000000       0.00000000
Ta      11.51578195       6.44917158       9.97805514       0.00000000       0.00000000       0.00000000
Ta       1.62975273       5.11405843      10.14833191       0.00000000       0.00000000       0.00000000
Ta      16.09104362       9.50250293      12.24601902       0.00000000       0.00000000       0.00000000
Ta       3.67439774      13.91682901       6.85496867       0.00000000       0.00000000       0.00000000
Ta      16.71881186      17.95002540      11.37093827       0.00000000       0.00000000       0.00000000
Ta      22.35863472       7.93969951      16.86296974       0.00000000       0.00000000       0.00000000
Ta      18.81318449      16.60686597      11.59084022       0.00000000       0.00000000       0.00000000
Ta      11.64308072      20.48610657      10.04465233       0.00000000       0.00000000       0.00000000
Ta      16.98193561      12.21493203      14.07332554       0.00000000       0.00000000       0.00000000
Ta       8.43782226       2.90050446       9.73621530       0.00000000       0.00000000       0.00000000
Ta      14.26696697       0.83462675       7.93830440       0.00000000       0.00000000       0.00000000
Ta      16.41810649       8.41194811       9.14718660       0.00000000       0.00000000       0.00000000
Ta      16.95935525      11.67097642      10.41116167       0.00000000       0.00000000       0.00000000
Ta      22.47852640      16.40507742      11.70415494       0.00000000       0.00000000       0.00000000
Ta       1.19111739      19.71043970      12.97975211       0.00000000       0.00000000       0.00000000
Ta      22.11027539      18.66831233      10.25274494       0.00000000       0.00000000       0.00000000
Ta       9.29077192       0.24664457      16.82611183       0.00000000       0.00000000       0.00000000
Ta      19.88454078      14.03943017       6.86499935       0.00000000       0.00000000       0.00000000
Ta      12.81126024       4.61214542      14.37232281       0.00000000       0.00000000       0.00000000
Ti       1.45163124      13.23021688      13.71786869       0.00000000       0.00000000       0.00000000
Ti       0.81888353      18.01866212      10.54537538       0.00000000       0.00000000       0.00000000
Ti       5.36566154      12.92265725       9.86563609       0.00000000       0.00000000       0.00000000
Ti      11.92755583       3.23978901       8.47614285       0.00000000       0.00000000       0.00000000
Ti       7.53494490       8.31022232      11.90022426       0.00000000       0.00000000       0.00000000
Ti       0.04084998       6.28865171      12.42756029       0.00000000       0.00000000       0.00000000
Ti      13.13204098      12.11416261      12.95857051       0.00000000       0.00000000       0.00000000
Ti      21.91755697      15.29440466      17.07777860       0.00000000       0.00000000       0.00000000
Ti      21.90170254      19.97813489       7.12529348       0.00000000       0.00000000       0.00000000
Ti       5.18946446       2.32057853      11.07446090       0.00000000       0.00000000       0.00000000
Ti       2.22837800      18.64876474      15.97224919       0.00000000       0.00000000       0.00000000
Ti       0.24700614       6.58381298       7.73259720       0.00000000       0.00000000       0.00000000
Ti       8.94102269       9.77977649      10.18579716       0.00000000       0.00000000       0.00000000
Ti       0.89496230      11.66548382      15.73702394       0.00000000       0.00000000       0.00000000
Ti      14.28725581      13.13180740      16.50587444       0.00000000       0.00000000       0.00000000
Ti       9.78915507      16.24813242      10.24369339       0.00000000       0.00000000       0.00000000
Ti       2.97732881      16.15480958      17.21689871       0.00000000       0.00000000       0.00000000
Ti      22.30158335      15.73976426       8.48402010       0.00000000       0.00000000       0.00000000
Ti      13.11560731       8.95309623      11.67450296       0.00000000       0.00000000       0.00000000
Ti       2.12893994      20.54873865       9.91410198       0.00000000       0.00000000       0.00000000
Ti       5.33236495      19.70860364       6.73738243       0.00000000       0.00000000       0.00000000
Ti      22.24492153       1.57933971      13.76624708       0.00000000       0.00000000       0.00000000
Ti      15.79546588       5.90281059      16.54223455       0.00000000       0.00000000       0.00000000
Ti       7.83929851       9.03419958      16.16634857       0.00000000       0.00000000       0.00000000
Ti      12.68556658      17.63076656       6.69728428       0.00000000       0.00000000       0.00000000
Ti       0.80768047      13.64653815      17.28045909       0.00000000       0.00000000       0.00000000
Ti       6.53699547      18.79000870      15.61518933       0.00000000       0.00000000       0.00000000
Ti      16.49274903       3.08178830       7.31254585       0.00000000       0.00000000       0.00000000
Ti       1.24138723      15.55283604      15.27907933       0.00000000       0.00000000       0.00000000
Zr      14.96565771      19.83956218      15.18872843       0.00000000       0.00000000       0.00000000
Zr       2.30191373      11.99875935       8.71179045       0.00000000       0.00000000       0.00000000
Zr      14.05958405       5.61498191       7.92344255       0.00000000       0.00000000       0.00000000
Zr       0.49166361       3.96923139      16.81148651       0.00000000       0.00000000       0.00000000
Zr       7.00120021      16.90465379       7.92480550       0.00000000       0.00000000       0.00000000
Zr       9.76137674      14.27572779      13.68837545       0.00000000       0.00000000       0.00000000
Zr      20.77753007      20.29571074      16.56370758       0.00000000       0.00000000       0.00000000
Zr      19.72576433       5.90637284      11.47287759       0.00000000       0.00000000       0.00000000
Zr      20.10392280      12.10378463      14.19411617       0.00000000       0.00000000       0.00000000
Zr       4.03758405      10.11469209      15.25474121       0.00000000       0.00000000       0.00000000
Zr      12.01923662      12.54871001      14.86347515       0.00000000       0.00000000       0.00000000
Zr      20.37607871      15.24176743      13.64858897       0.00000000       0.00000000       0.00000000
Zr       3.56219967      18.64705016      13.52046078       0.00000000       0.00000000       0.00000000
Zr      21.34093762      18.13030192      13.04502466       0.00000000       0.00000000       0.00000000
Zr      14.42123521      19.94952753      10.73367142       0.00000000       0.00000000       0.00000000
Zr      11.50616937      12.90431701       9.41281194       0.00000000       0.00000000       0.00000000
Zr      11.05360054      16.60859189      12.96230996       0.00000000       0.00000000       0.00000000
Zr      17.43021557       4.32159561      13.57551487       0.00000000       0.00000000       0.00000000
Zr       9.48614363       5.70816193       7.84256920       0.00000000       0.00000000       0.00000000
Zr      18.02001087      19.30535813      14.49028862       0.00000000       0.00000000       0.00000000
Zr      19.76395307       5.93364674       6.42850387       0.00000000       0.00000000       0.00000000
Zr      14.05365092       9.99949190      15.17069119       0.00000000       0.00000000       0.00000000
Zr      19.76580486       4.13388406      15.47035587       0.00000000       0.00000000       0.00000000
Zr      17.35934462      14.77857590       8.61773871       0.00000000       0.00000000       0.00000000
Zr      19.40628266       8.57270295       9.23487444       0.00000000       0.00000000       0.00000000
Zr      22.40284031       9.90622568       9.34327775       0.00000000       0.00000000       0.00000000
Zr       5.97539025       7.16861002       8.28309594       0.00000000       0.00000000       0.00000000
Zr       8.53692615       0.19829730      12.14149620       0.00000000       0.00000000       0.00000000
Zr      21.98626297       7.50853913       7.73328330       0.00000000       0.00000000       0.00000000
Zr       6.09217545       3.86356663       8.00877187       0.00000000       0.00000000       0.00000000
C       17.53686160      21.32323338      14.82957504       0.00000000       0.00000000       0.00000000
C        3.94468946      22.75995197       9.08707445       0.00000000       0.00000000       0.00000000
C       20.59482220      22.75532615      10.95504960       0.00000000       0.00000000       0.00000000
C       21.25497295      21.56563064      11.27518776       0.00000000       0.00000000       0.00000000
C       15.69123120      21.46517632       6.57129955       0.00000000       0.00000000       0.00000000
C        2.75974050      22.48470218      11.76530443       0.00000000       0.00000000       0.00000000
C       16.55432310      22.20069461      15.08093079       0.00000000       0.00000000       0.00000000
C        8.91784004      21.39247549      12.74786442       0.00000000       0.00000000       0.00000000
C       14.24996261      22.05613271      10.94397603       0.00000000       0.00000000       0.00000000
C        3.31867702      21.43002062      16.92493384       0.00000000       0.00000000       0.00000000
C       14.96922229      21.83313192       9.71867182       0.00000000       0.00000000       0.00000000
C       13.79226644      21.57764061      13.44389577       0.00000000       0.00000000       0.00000000
C        6.27055155      21.27100153      10.04971151       0.00000000       0.00000000       0.00000000
C        9.51297223      21.74880996      16.76126401       0.00000000       0.00000000       0.00000000
Hf      22.38844204      21.16372034      13.25893581       0.00000000       0.00000000       0.00000000
Hf       8.98544774      22.00245158      10.74343904       0.00000000       0.00000000       0.00000000
Hf      17.95099277      21.62005491       6.70252830       0.00000000       0.00000000       0.00000000
Hf      10.80111407      22.78290344      14.62840765       0.00000000       0.00000000       0.00000000
Hf      19.18370923      22.26929730      12.20962778       0.00000000       0.00000000       0.00000000
Hf      12.32286611      22.30020885      12.12409751       0.00000000       0.00000000       0.00000000
Nb       5.56177583      22.81111522      15.77403567       0.00000000       0.00000000       0.00000000
Nb      19.04373210      22.26455192       9.34368427       0.00000000       0.00000000       0.00000000
Nb       7.77876813      22.68097177      17.49321809       0.00000000       0.00000000       0.00000000
Nb       1.52855620      21.90350791       7.78074835       0.00000000       0.00000000       0.00000000
C       13.26190780      22.71460634      16.24178554       0.00000000       0.00000000       0.00000000
C        5.93311267      22.56178511       7.89893948       0.00000000       0.00000000       0.00000000
C        3.99860612      21.19625661      14.49392040       0.00000000       0.00000000       0.00000000
Ti      15.79928874      22.83423763       7.92139410       0.00000000       0.00000000       0.00000000
Zr       1.49194409      22.82198691      16.40325605       0.00000000       0.00000000       0.00000000
Zr       4.70477367      22.22398378      11.60428284       0.00000000       0.00000000       0.00000000
Zr       0.07444264      22.64861032      12.65774516       0.00000000       0.00000000       0.00000000
853
Lattice="22.90502845 0.0 0.0 0.0 22.90502845 0.0 0.0 0.0 22.90502845" Properties=species:S:1:pos:R:3:momenta:R:3 pbc="T T T"
C       19.99091443       7.48617555       2.86350752       0.00000000       0.00000000       0.00000000
C       11.46315026      16.56397962       0.69789535       0.00000000       0.00000000       0.00000000
C       16.99037656       8.75457361       3.95163046       0.00000000       0.00000000       0.00000000
C       15.16672280      12.91510818       4.44274133       0.00000000       0.00000000       0.00000000
C        2.60505458       1.05013721      18.73378403       0.00000000       0.00000000       0.00000000
C        3.57142143      15.14947627       6.24932261       0.00000000       0.00000000       0.00000000
C        9.25308280      10.55652143       1.95930547       0.00000000       0.00000000       0.00000000
C       17.13109193      12.08420951      18.80218997       0.00000000       0.00000000       0.00000000
C       16.05670406      18.19742321       6.00195537       0.00000000       0.00000000       0.00000000
C        2.88403516       5.35524639       0.33030199       0.00000000       0.00000000       0.00000000
C        8.40823238       0.34285021      18.86187655       0.00000000       0.00000000       0.00000000
C       11.36838455       6.41494328       1.51453877       0.00000000       0.00000000       0.00000000
C        3.64576634      16.35692506      19.18692444       0.00000000       0.00000000       0.00000000
C       19.91749163      10.87731157      17.53796898       0.00000000       0.00000000       0.00000000
C        4.73594219      19.29158546      18.51482427       0.00000000       0.00000000       0.00000000
C        8.52453794      15.41469839      22.43995826       0.00000000       0.00000000       0.00000000
C       20.52488270       5.74761909      20.45507737       0.00000000       0.00000000       0.00000000
C        8.36369189       7.62884434       2.52385023       0.00000000       0.00000000       0.00000000
C        8.38938330       3.68486869      20.90537226       0.00000000       0.00000000       0.00000000
C        1.62186842      17.29954424       4.55477848       0.00000000       0.00000000       0.00000000
C       22.70390860      21.80386723       4.85310548       0.00000000       0.00000000       0.00000000
C       10.22477638      11.33893417      21.99111898       0.00000000       0.00000000       0.00000000
C        0.74986176      19.86080189      22.54548249       0.00000000       0.00000000       0.00000000
C       19.89564519       9.65960267       5.12173290       0.00000000       0.00000000       0.00000000
C       11.35483102      14.27093658      21.31701322       0.00000000       0.00000000       0.00000000
C        3.62895801      18.56467707      21.55064873       0.00000000       0.00000000       0.00000000
C        4.59907625      11.31322410      21.91794288       0.00000000       0.00000000       0.00000000
C       17.04828884      22.26537823      17.76757929       0.00000000       0.00000000       0.00000000
C       14.07652689      20.12025695       4.07387790       0.00000000       0.00000000       0.00000000
C       21.62132592      18.31918099       5.90534094       0.00000000       0.00000000       0.00000000
C       16.96633228      10.91550134       6.29912256       0.00000000       0.00000000       0.00000000
C       13.29576412      22.70535788      21.93612015       0.00000000       0.00000000       0.00000000
C       22.58453384      19.52239201       2.63055513       0.00000000       0.00000000       0.00000000
C       14.17232573      13.33580095      20.18300188       0.00000000       0.00000000       0.00000000
C        2.69978168       3.31114767      20.99578656       0.00000000       0.00000000       0.00000000
C        8.44219341      22.34425831       6.13225803       0.00000000       0.00000000       0.00000000
C        3.58555694      12.83335509       4.18189330       0.00000000       0.00000000       0.00000000
C       16.19523186      13.56747496       1.34605098       0.00000000       0.00000000       0.00000000
C        6.80482391       1.34449610       4.26614956       0.00000000       0.00000000       0.00000000
C        1.77180446       6.73596249       5.79221549       0.00000000       0.00000000       0.00000000
C       13.30345419      12.47835097       0.22107473       0.00000000       0.00000000       0.00000000
C        7.54132770      16.82376223       4.77362192       0.00000000       0.00000000       0.00000000
C        3.72928363       8.25033970      22.49143787       0.00000000       0.00000000       0.00000000
C        9.20598859       8.34547810      22.57312080       0.00000000       0.00000000       0.00000000
C       11.48761215       1.25169482      19.97776978       0.00000000       0.00000000       0.00000000
C        6.52442705       5.02994090      19.06038177       0.00000000       0.00000000       0.00000000
C       11.27864275      12.19944927      19.01955435       0.00000000       0.00000000       0.00000000
C       16.04336497       0.97592458       0.26576141       0.00000000       0.00000000       0.00000000
C        4.71776280       1.22174449       0.06991577       0.00000000       0.00000000       0.00000000
C       22.00456558       1.05322743       0.09184330       0.00000000       0.00000000       0.00000000
C       18.75983735      20.38917273      19.51163941       0.00000000       0.00000000       0.00000000
C       12.24232392      17.26574206      20.45352638       0.00000000       0.00000000       0.00000000
C        0.02290726       8.63519843       3.75868847       0.00000000       0.00000000       0.00000000
C        6.56189864       7.39647796      21.24092649       0.00000000       0.00000000       0.00000000
C       15.23856364      20.67735924       0.93249987       0.00000000       0.00000000       0.00000000
C        5.13236982       3.60617958       3.18758578       0.00000000       0.00000000       0.00000000
C        8.22321963      13.03482950      20.05234064       0.00000000       0.00000000       0.00000000
C       20.94293913       0.47241290       3.11056296       0.00000000       0.00000000       0.00000000
C        0.18089761      12.01536067      18.82566266       0.00000000       0.00000000       0.00000000
C        0.84468461       4.90932191      19.21122368       0.00000000       0.00000000       0.00000000
C       11.41485272      21.21239396       5.16976831       0.00000000       0.00000000       0.00000000
C       19.15639047       6.81439221       5.82386787       0.00000000       0.00000000       0.00000000
C        5.46213115      19.12950805       2.75502960       0.00000000       0.00000000       0.00000000
C        4.48861538       5.98066503       4.58566985       0.00000000       0.00000000       0.00000000
C       15.08890253      18.37418571      21.64969251       0.00000000       0.00000000       0.00000000
C       18.28966361      11.70193006       3.24019781       0.00000000       0.00000000       0.00000000
C        7.38090626      12.37008379       0.20488420       0.00000000       0.00000000       0.00000000
C       14.17326432       2.88636831      21.22360866       0.00000000       0.00000000       0.00000000
C        7.31431545       6.77588680       5.72271815       0.00000000       0.00000000       0.00000000
C        5.63530150      12.16877965      18.85945602       0.00000000       0.00000000       0.00000000
C        6.61875962      15.17925668      18.20012402       0.00000000       0.00000000       0.00000000
C       20.85604040      12.98308516       4.31281854       0.00000000       0.00000000       0.00000000
C       10.35504228       3.18280180       2.33234901       0.00000000       0.00000000       0.00000000
C       19.47092735      10.42613181      20.31390509       0.00000000       0.00000000       0.00000000
C       12.19403402       7.32349634      21.53561612       0.00000000       0.00000000       0.00000000
C        3.68571886       2.84175759       5.54957569       0.00000000       0.00000000       0.00000000
C        0.05172649       6.43883092       1.48171989       0.00000000       0.00000000       0.00000000
C        6.43802788      22.02172711       2.04887716       0.00000000       0.00000000       0.00000000
C       16.15133902      15.78771652       3.70882099       0.00000000       0.00000000       0.00000000
C       19.90859577       2.85568121      21.35147526       0.00000000       0.00000000       0.00000000
C       19.76129387      15.58270769      22.14423217       0.00000000       0.00000000       0.00000000
C        9.35317310       6.19301306      20.19093347       0.00000000       0.00000000       0.00000000
C       17.97358235       6.51988867      21.75681640       0.00000000       0.00000000       0.00000000
C       13.36063634      14.67835012       2.75097361       0.00000000       0.00000000       0.00000000
C       13.11075401       8.08828676      18.54930920       0.00000000       0.00000000       0.00000000
C       16.14029207       5.64182297       4.73876153       0.00000000       0.00000000       0.00000000
C       18.10841492      17.44216280      20.15981702       0.00000000       0.00000000       0.00000000
C       19.14744075      12.42317008       0.06647133       0.00000000       0.00000000       0.00000000
C        0.86687320      11.93768831       3.06883401       0.00000000       0.00000000       0.00000000
C       14.99024180       3.61888881      18.37642108       0.00000000       0.00000000       0.00000000
C       18.96647626      22.85307658      21.93610847       0.00000000       0.00000000       0.00000000
C        2.62232749      15.60443219      22.30974560       0.00000000       0.00000000       0.00000000
C        2.85027922       7.68511578       2.62572683       0.00000000       0.00000000       0.00000000
C        2.66858682      20.37588894       3.78166774       0.00000000       0.00000000       0.00000000
C       20.83053970      18.72675916      21.22734945       0.00000000       0.00000000       0.00000000
C        2.00769097      10.15768655      20.79633739       0.00000000       0.00000000       0.00000000
C        7.58755432       8.07270130      18.35253430       0.00000000       0.00000000       0.00000000
C       12.11859161      15.17972756      18.15610366       0.00000000       0.00000000       0.00000000
C       13.25900610      20.44084319      19.70702900       0.00000000       0.00000000       0.00000000
C       14.08832606      22.52850909       6.31934477       0.00000000       0.00000000       0.00000000
C       16.04287446      19.32154874      18.34567730       0.00000000       0.00000000       0.00000000
C        1.09028200       1.81323120       4.32934158       0.00000000       0.00000000       0.00000000
C       19.99850345       0.55551434      19.01662354       0.00000000       0.00000000       0.00000000
C       10.43463031      19.21852028      18.44473361       0.00000000       0.00000000       0.00000000
C       18.41391625      10.02450050      20.86293766       0.00000000       0.00000000       0.00000000
C       13.91999239       5.04073378       0.59549293       0.00000000       0.00000000       0.00000000
C       18.77906869      17.24752113       4.72093709       0.00000000       0.00000000       0.00000000
C       17.12508392      18.97893874       2.84559589       0.00000000       0.00000000       0.00000000
C       12.43720378      13.85970775       5.75155751       0.00000000       0.00000000       0.00000000
C        5.67720314      14.32499333      21.21195103       0.00000000       0.00000000       0.00000000
C        6.30836451       9.41137930       0.84492821       0.00000000       0.00000000       0.00000000
C       22.84722523       1.60740663      20.08219639       0.00000000       0.00000000       0.00000000
C       15.01403161       6.19983058      20.51803702       0.00000000       0.00000000       0.00000000
C       18.24758247       9.53566841       0.95361362       0.00000000       0.00000000       0.00000000
C       16.01661897       3.27467922       2.46418516       0.00000000       0.00000000       0.00000000
C       17.81100767       1.37147443       4.52579418       0.00000000       0.00000000       0.00000000
C        8.39408436      11.07656542      17.56075304       0.00000000       0.00000000       0.00000000
C       17.98303245      19.67956568      22.72931367       0.00000000       0.00000000       0.00000000
C       12.25953859       4.88773688      19.28106721       0.00000000       0.00000000       0.00000000
C       12.31646096      11.65724428       3.15402928       0.00000000       0.00000000       0.00000000
C       14.86491235       8.37576521      22.70906705       0.00000000       0.00000000       0.00000000
C        0.80327527      14.09390050       5.39011828       0.00000000       0.00000000       0.00000000
C        8.59675302      17.70406780       1.78956821       0.00000000       0.00000000       0.00000000
C       20.87344928      16.28998804      19.09259031       0.00000000       0.00000000       0.00000000
C       17.09208393      16.63781697       0.37751647       0.00000000       0.00000000       0.00000000
C       12.92570260      10.21926990      21.09912093       0.00000000       0.00000000       0.00000000
C        2.00520349       4.62002591       3.66619243       0.00000000       0.00000000       0.00000000
C        0.62737969       7.03803577      21.57171868       0.00000000       0.00000000       0.00000000
C        5.62269585      21.37538794       4.83296093       0.00000000       0.00000000       0.00000000
C       21.82532077      13.71948471       1.41568835       0.00000000       0.00000000       0.00000000
C        1.82903216       2.31781835       1.26950326       0.00000000       0.00000000       0.00000000
C       17.97883099      15.03971130      17.83507492       0.00000000       0.00000000       0.00000000
C        2.55684593      18.04961520       1.58197146       0.00000000       0.00000000       0.00000000
C        1.87430276      22.87087507      21.83787941       0.00000000       0.00000000       0.00000000
C       13.14403193       4.38028464       3.59119284       0.00000000       0.00000000       0.00000000
C       13.45688797      16.96685612       4.96567389       0.00000000       0.00000000       0.00000000
C       17.43983923       7.69755289      21.82242568       0.00000000       0.00000000       0.00000000
C        7.54539885      14.69794303       2.65532771       0.00000000       0.00000000       0.00000000
C       14.08021055       9.61352921       5.09190692       0.00000000       0.00000000       0.00000000
C        4.75150002       9.20101070      19.49771314       0.00000000       0.00000000       0.00000000
C       19.92348408       5.17338655       0.81189725       0.00000000       0.00000000       0.00000000
C        2.94249087      13.27359193      20.00752310       0.00000000       0.00000000       0.00000000
C       15.12391112       0.16307204       3.40626075       0.00000000       0.00000000       0.00000000
C       14.50628605      17.68343957       1.83400105       0.00000000       0.00000000       0.00000000
C       10.50388685      18.16938090       6.01163685       0.00000000       0.00000000       0.00000000
C        7.68045115      22.71975265      21.80576760       0.00000000       0.00000000       0.00000000
C        2.84031248       9.92058819       5.05442054       0.00000000       0.00000000       0.00000000
C        7.58668249       2.30444365       1.23672479       0.00000000       0.00000000       0.00000000
C       10.63451928       2.30527744      20.35550796       0.00000000       0.00000000       0.00000000
C       11.30525635       4.33350179      22.21602263       0.00000000       0.00000000       0.00000000
C       16.96566628       3.93087823      22.40350829       0.00000000       0.00000000       0.00000000
C       11.23124494      18.67783605       3.07586930       0.00000000       0.00000000       0.00000000
C       18.93628731       2.17637003       1.36665834       0.00000000       0.00000000       0.00000000
C        4.63111741      13.52597296       1.33765856       0.00000000       0.00000000       0.00000000
C       21.66586888      16.17392051       3.54173977       0.00000000       0.00000000       0.00000000
C       11.31487374      22.25968427      17.69296740       0.00000000       0.00000000       0.00000000
C       13.07050778       6.61207034       5.77128795       0.00000000       0.00000000       0.00000000
C        5.67454679       1.93089839      19.73159268       0.00000000       0.00000000       0.00000000
C        9.54031206      18.37934573      21.58206815       0.00000000       0.00000000       0.00000000
C        0.62972860      17.38086539      20.31292413       0.00000000       0.00000000       0.00000000
C       21.79557960       3.32812516       2.61487293       0.00000000       0.00000000       0.00000000
C        5.87421474      21.72018484      17.72726505       0.00000000       0.00000000       0.00000000
C        9.04441975       2.45310697      20.69217881       0.00000000       0.00000000       0.00000000
C       12.31951447       1.25707167       4.37910413       0.00000000       0.00000000       0.00000000
C       12.44003308      19.62328730      22.87208482       0.00000000       0.00000000       0.00000000
C        5.70584999      10.93444260       6.32530284       0.00000000       0.00000000       0.00000000
C       14.46248460      15.39492150      22.43224616       0.00000000       0.00000000       0.00000000
C        1.85983820       7.83507446      18.36373558       0.00000000       0.00000000       0.00000000
C       22.76263455       3.98140392      22.41169693       0.00000000       0.00000000       0.00000000
C        9.43057121       2.50522095       5.37989108       0.00000000       0.00000000       0.00000000
C       19.77389054      17.99359407       1.72400038       0.00000000       0.00000000       0.00000000
C       10.33601333       9.06982100      19.51608592       0.00000000       0.00000000       0.00000000
C       10.99501475      10.82835897       6.04978878       0.00000000       0.00000000       0.00000000
C       14.26921982      11.37799195      18.32093863       0.00000000       0.00000000       0.00000000
C       14.28089150       0.55210037      18.83553757       0.00000000       0.00000000       0.00000000
C       10.48659958       0.77668984       0.19842378       0.00000000       0.00000000       0.00000000
C        4.57187442      15.96399153       3.47425896       0.00000000       0.00000000       0.00000000
C        0.85739228      15.14537027      18.13305179       0.00000000       0.00000000       0.00000000
C       15.98602805      11.47431054      21.99614949       0.00000000       0.00000000       0.00000000
C        8.17457433       9.77372333       4.99510614       0.00000000       0.00000000       0.00000000
C        9.38743909      12.75722249       4.31675823       0.00000000       0.00000000       0.00000000
C        6.49552229      19.63771595      22.56799052       0.00000000       0.00000000       0.00000000
C        5.06892379       4.77361594       4.29082024       0.00000000       0.00000000       0.00000000
C        8.40824609      20.14950250       3.94767839       0.00000000       0.00000000       0.00000000
C       20.96010702      21.02637900       0.74003399       0.00000000       0.00000000       0.00000000
C       11.12913564       8.53199011       3.84569719       0.00000000       0.00000000       0.00000000
C        1.01743619      22.25599962       1.90333401       0.00000000       0.00000000       0.00000000
C       16.99616253       6.22023266       1.72128491       0.00000000       0.00000000       0.00000000
C       17.96686520      21.90492601       2.09385741       0.00000000       0.00000000       0.00000000
C       16.00967649       6.57772639      17.64271979       0.00000000       0.00000000       0.00000000
C       22.61356448      14.64191870      21.11233313       0.00000000       0.00000000       0.00000000
C       17.13994732       1.64529223      20.24412215       0.00000000       0.00000000       0.00000000
C        3.62481600      10.50523864       1.88954122       0.00000000       0.00000000       0.00000000
C       17.11187493      14.39517339      20.98254790       0.00000000       0.00000000       0.00000000
C       15.11240684      10.47107361       2.06168101       0.00000000       0.00000000       0.00000000
C        7.84611311       4.57734480       3.18515191       0.00000000       0.00000000       0.00000000
C       22.80168968      10.89083299       6.08877196       0.00000000       0.00000000       0.00000000
C        5.60643506       4.28759946      22.05398171       0.00000000       0.00000000       0.00000000
C       10.11236563      13.50810900       1.36040410       0.00000000       0.00000000       0.00000000
C       17.03477977      21.39203177       5.29984777       0.00000000       0.00000000       0.00000000
C        9.48363431       0.16408713       3.03127744       0.00000000       0.00000000       0.00000000
C        1.80161971      20.35869702      19.59572649       0.00000000       0.00000000       0.00000000
C       21.90277476      11.29413315      21.79514142       0.00000000       0.00000000       0.00000000
C       21.92321823      21.65195349      20.63222744       0.00000000       0.00000000       0.00000000
C        7.51579052      10.22641749      20.76306126       0.00000000       0.00000000       0.00000000
C        5.64684261       6.44236862       1.46961854       0.00000000       0.00000000       0.00000000
C       20.08541577      13.21700184      19.82869514       0.00000000       0.00000000       0.00000000
C        9.53775364      20.80712870       0.86123923       0.00000000       0.00000000       0.00000000
C       18.77607339      14.78791328       2.37404300       0.00000000       0.00000000       0.00000000
C       16.17959289      21.57909123      20.94836861       0.00000000       0.00000000       0.00000000
C        1.43239385      15.09641147       2.47502926       0.00000000       0.00000000       0.00000000
C        6.79099147      13.94424862       5.50682136       0.00000000       0.00000000       0.00000000
C       17.68101442       4.63964059      19.48348791       0.00000000       0.00000000       0.00000000
C        4.56022365      21.45849711      20.64596682       0.00000000       0.00000000       0.00000000
C       15.75112930       9.38644379      19.63208215       0.00000000       0.00000000       0.00000000
C       10.18353970       5.54843141       4.58605440       0.00000000       0.00000000       0.00000000
C       20.66275406       2.78423831       5.51153710       0.00000000       0.00000000       0.00000000
C        3.75067226       0.44381878       3.08287187       0.00000000       0.00000000       0.00000000
C        5.76614336      16.66842161       0.63724069       0.00000000       0.00000000       0.00000000
C       20.87463945       8.10927952      22.65744336       0.00000000       0.00000000       0.00000000
C       12.39711402      21.92446643       2.20185346       0.00000000       0.00000000       0.00000000
C        1.72939525      12.47401091       0.10044767       0.00000000       0.00000000       0.00000000
C        0.74841145       9.46588974       0.68710696       0.00000000       0.00000000       0.00000000
C        0.00371220      22.38511634      17.72892343       0.00000000       0.00000000       0.00000000
C        5.30215028      22.89210313      17.63299274       0.00000000       0.00000000       0.00000000
C        3.51715217      20.91146250       0.82235218       0.00000000       0.00000000       0.00000000
C       10.41398721      15.76571926       3.64615641       0.00000000       0.00000000       0.00000000
C        9.37299497      16.14350664      19.30677195       0.00000000       0.00000000       0.00000000
C       21.72579755      19.21605118      18.41121993       0.00000000       0.00000000       0.00000000
C        5.46666967       8.72949081       3.75665585       0.00000000       0.00000000       0.00000000
C       17.97941636      14.13389810       5.64162326       0.00000000       0.00000000       0.00000000
C       20.88848056       3.35346998      18.01063833       0.00000000       0.00000000       0.00000000
C       15.16792629       2.46299429       5.65918741       0.00000000       0.00000000       0.00000000
C       12.10704343       9.55072973       1.03912694       0.00000000       0.00000000       0.00000000
C        3.79421224       6.00652084      20.30225607       0.00000000       0.00000000       0.00000000
C        2.59900075       0.02401082       6.17089648       0.00000000       0.00000000       0.00000000
C        3.87964969       4.04395665      17.93330796       0.00000000       0.00000000       0.00000000
C        6.54324661      17.35970330      20.38643063       0.00000000       0.00000000       0.00000000
C        7.66880423      20.34426719      19.63701825       0.00000000       0.00000000       0.00000000
C        9.46052653       3.83494477      17.99026073       0.00000000       0.00000000       0.00000000
C       13.27320582       1.96736232       1.24938376       0.00000000       0.00000000       0.00000000
C       19.88849772      20.23593228       4.16093873       0.00000000       0.00000000       0.00000000
C       21.85048048       5.77111984       4.49963044       0.00000000       0.00000000       0.00000000
C        8.39289618       5.36430351       0.19186889       0.00000000       0.00000000       0.00000000
C        6.44972473      11.77433815       3.05666009       0.00000000       0.00000000       0.00000000
C        4.71213916      18.04578826       5.54067918       0.00000000       0.00000000       0.00000000
C       21.79567886       8.92105769      19.61010476       0.00000000       0.00000000       0.00000000
C        4.55439873       3.54785639       1.99353171       0.00000000       0.00000000       0.00000000
C       18.44092863       7.74435304      18.56518885       0.00000000       0.00000000       0.00000000
C       18.67618459       4.44257689       3.81272473       0.00000000       0.00000000       0.00000000
C       22.59584591      16.84725466       0.44396195       0.00000000       0.00000000       0.00000000
C       14.11554076       7.54057707       2.75305280       0.00000000       0.00000000       0.00000000
C       15.18988399      16.29891382      19.27850485       0.00000000       0.00000000       0.00000000
C       21.04177190      10.80452134       1.93932558       0.00000000       0.00000000       0.00000000
C       10.46270582      21.36429736      20.71915148       0.00000000       0.00000000       0.00000000
C        2.95863696      11.00243206      17.68785432       0.00000000       0.00000000       0.00000000
Hf      12.16158643       6.48405882       3.63732390       0.00000000       0.00000000       0.00000000
Hf      18.95911169      15.27639280      19.81005664       0.00000000       0.00000000       0.00000000
Hf       6.37227691       8.79145506       6.19687489       0.00000000       0.00000000       0.00000000
Hf      17.94563142       6.73469245       3.75167632       0.00000000       0.00000000       0.00000000
Hf       1.08796791       6.66969323       3.61924237       0.00000000       0.00000000       0.00000000
Hf       3.71317816      13.43223605      22.16323835       0.00000000       0.00000000       0.00000000
Hf       9.43647549       2.69554457       0.33756773       0.00000000       0.00000000       0.00000000
Hf       2.46974762      13.06539831       2.05668057       0.00000000       0.00000000       0.00000000
Hf       3.39960344       1.27429978      20.97040391       0.00000000       0.00000000       0.00000000
Hf       6.64265256       6.79165487       3.57086563       0.00000000       0.00000000       0.00000000
Hf      11.30558075       3.25215764       4.60311742       0.00000000       0.00000000       0.00000000
Hf      11.46428464      19.29335555      21.03989522       0.00000000       0.00000000       0.00000000
Hf      17.72021671       9.92717301      18.50831061       0.00000000       0.00000000       0.00000000
Hf      19.63909904      22.81746910       1.16432368       0.00000000       0.00000000       0.00000000
Hf       9.48199302       5.57408051       2.14334632       0.00000000       0.00000000       0.00000000
Hf       4.01850258      20.05603276       5.48141823       0.00000000       0.00000000       0.00000000
Hf      14.97408671       5.35745613       2.54254692       0.00000000       0.00000000       0.00000000
Hf      10.47136944      16.24150142      21.34837788       0.00000000       0.00000000       0.00000000
Hf      12.67377900      16.77915878       2.84874364       0.00000000       0.00000000       0.00000000
Hf      21.58741975       0.83263483       5.70734420       0.00000000       0.00000000       0.00000000
Hf       5.62391152       7.24138360      19.24864755       0.00000000       0.00000000       0.00000000
Hf      14.07846372       4.67014556       5.64382130       0.00000000       0.00000000       0.00000000
Hf      20.66607001       8.81563095      17.55834230       0.00000000       0.00000000       0.00000000
Hf      20.42848670      20.94656401      18.35335202       0.00000000       0.00000000       0.00000000
Hf      15.80261532      10.70283163       4.15904967       0.00000000       0.00000000       0.00000000
Hf      15.24087478      18.29122681       3.94446821       0.00000000       0.00000000       0.00000000
Hf       0.61185145      19.87139178       4.55730797       0.00000000       0.00000000       0.00000000
Hf       1.27408253       9.83793322      18.71949125       0.00000000       0.00000000       0.00000000
Hf      16.97930523       1.12898970       2.50186838       0.00000000       0.00000000       0.00000000
Hf      10.44939256      18.66194717       0.84506601       0.00000000       0.00000000       0.00000000
Hf       3.70586295      16.10023506       1.31107194       0.00000000       0.00000000       0.00000000
Hf      12.26251741       1.74317996      22.11694065       0.00000000       0.00000000       0.00000000
Hf      12.10354292      22.15429973      19.71071964       0.00000000       0.00000000       0.00000000
Hf       0.53754498      14.84411749       0.38954319       0.00000000       0.00000000       0.00000000
Hf      12.15086182      10.17863202      18.99177506       0.00000000       0.00000000       0.00000000
Hf      11.61313545      16.00012153       5.71580752       0.00000000       0.00000000       0.00000000
Hf       5.54179864      17.25111082      18.27797987       0.00000000       0.00000000       0.00000000
Hf      18.36554696      12.44995520      20.74939400       0.00000000       0.00000000       0.00000000
Hf      13.10887742       9.42867600       3.04917732       0.00000000       0.00000000       0.00000000
Hf      18.90304240      17.74686605      22.21078924       0.00000000       0.00000000       0.00000000
Hf       7.55365010      20.03143265       1.72623599       0.00000000       0.00000000       0.00000000
Hf      22.06354030       8.33075195       1.83741623       0.00000000       0.00000000       0.00000000
Hf       0.87600068      22.47504038      19.93671759       0.00000000       0.00000000       0.00000000
Hf      16.24751116       8.63470791       1.73814128       0.00000000       0.00000000       0.00000000
Hf      15.79920318       5.89481637      22.60041895       0.00000000       0.00000000       0.00000000
Hf       7.56468867      17.52759988      22.44985936       0.00000000       0.00000000       0.00000000
Hf      17.98411068      19.35915552       5.25535101       0.00000000       0.00000000       0.00000000
Hf       9.99615246      10.59947349       4.11498301       0.00000000       0.00000000       0.00000000
Hf       4.56456689       4.01207845      20.08690730       0.00000000       0.00000000       0.00000000
Hf      15.26671262      21.28180598      18.81393134       0.00000000       0.00000000       0.00000000
Hf      19.99126042      10.25776639      22.65854441       0.00000000       0.00000000       0.00000000
Hf       0.39323106      17.21350961       2.56548326       0.00000000       0.00000000       0.00000000
Hf       4.80680373      16.59301672      21.43602796       0.00000000       0.00000000       0.00000000
Hf      10.46535144      20.89458772       2.95855279       0.00000000       0.00000000       0.00000000
Hf      11.58036422      13.58917355       3.79844394       0.00000000       0.00000000       0.00000000
Hf      22.84732204       7.03677540      19.41369288       0.00000000       0.00000000       0.00000000
Hf       6.67573540       4.30449772       1.35733879       0.00000000       0.00000000       0.00000000
Hf      14.38254645      20.53846588      21.80894214       0.00000000       0.00000000       0.00000000
Hf      20.75464376       3.20782633       0.70865413       0.00000000       0.00000000       0.00000000
Hf      20.42276842       5.09568061       2.98881657       0.00000000       0.00000000       0.00000000
Hf      17.62339047      11.55675442       1.31090963       0.00000000       0.00000000       0.00000000
Nb       5.48301659      19.45488350      20.67799498       0.00000000       0.00000000       0.00000000
Nb       4.00136033      11.16426759      19.82352127       0.00000000       0.00000000       0.00000000
Nb       2.99422716       2.48512296       3.54925283       0.00000000       0.00000000       0.00000000
Nb      16.95499240       3.60623976       4.60614518       0.00000000       0.00000000       0.00000000
Nb      19.22385630       5.69829986      18.61108176       0.00000000       0.00000000       0.00000000
Nb      15.16367759       2.96231692       0.47246271       0.00000000       0.00000000       0.00000000
Nb       0.87820413       2.11159002      21.89245493       0.00000000       0.00000000       0.00000000
Nb      15.27687004       7.81191308       4.61020202       0.00000000       0.00000000       0.00000000
Nb      19.06908646       7.19237358       0.87637203       0.00000000       0.00000000       0.00000000
Nb      19.06121583       4.80080400      21.81228248       0.00000000       0.00000000       0.00000000
Nb      22.76365821       9.07007860      21.59101329       0.00000000       0.00000000       0.00000000
Nb      16.59052127       9.62457132      21.57574742       0.00000000       0.00000000       0.00000000
Nb      16.17344543      14.16522254      18.87473115       0.00000000       0.00000000       0.00000000
Nb      21.64448108      16.53297939      21.07566904       0.00000000       0.00000000       0.00000000
Nb       1.58340221      20.10258899       1.53504533       0.00000000       0.00000000       0.00000000
Nb       7.58393384      22.12515289       3.92783995       0.00000000       0.00000000       0.00000000
Nb      12.26607568       3.99865320       1.17281829       0.00000000       0.00000000       0.00000000
Nb      13.43832598      19.91255855       1.92658784       0.00000000       0.00000000       0.00000000
Nb       6.67004511      18.99306736       4.60987947       0.00000000       0.00000000       0.00000000
Nb       4.73795272      18.78408064       0.47721727       0.00000000       0.00000000       0.00000000
Nb      22.47071402      16.22627993       5.40538737       0.00000000       0.00000000       0.00000000
Nb       9.55389388      17.76238828       3.98065237       0.00000000       0.00000000       0.00000000
Nb       3.80888538       3.26920498       0.20482966       0.00000000       0.00000000       0.00000000
Nb      18.11393686       8.63801780       6.22411780       0.00000000       0.00000000       0.00000000
Nb      22.60049980      19.52438840      20.35149921       0.00000000       0.00000000       0.00000000
Nb       8.38743303       6.05406846      18.12038349       0.00000000       0.00000000       0.00000000
Nb      17.89220980      16.85934355       2.51411113       0.00000000       0.00000000       0.00000000
Nb       9.42791195      20.19804993       5.99579097       0.00000000       0.00000000       0.00000000
Nb      19.26183398      12.98787973      17.71650890       0.00000000       0.00000000       0.00000000
Nb      20.62958293      18.28977463       3.91709597       0.00000000       0.00000000       0.00000000
Nb       8.63784557      14.81929363       4.38473205       0.00000000       0.00000000       0.00000000
Nb       1.67167897      15.50365904      20.35492182       0.00000000       0.00000000       0.00000000
Nb      17.83565212       4.24932130       1.60976682       0.00000000       0.00000000       0.00000000
Nb      22.82869987      22.06406272      22.54649941       0.00000000       0.00000000       0.00000000
Nb      14.10978090      10.43513265       0.25796734       0.00000000       0.00000000       0.00000000
Nb       3.76356284      21.31594251      18.71861104       0.00000000       0.00000000       0.00000000
Nb      18.87237730      19.81376998       1.98695108       0.00000000       0.00000000       0.00000000
Nb       4.75931019      13.16963116       6.35965003       0.00000000       0.00000000       0.00000000
Nb      19.63245673       4.59508367       5.90976700       0.00000000       0.00000000       0.00000000
Nb      21.62132610       5.91004262      22.45958295       0.00000000       0.00000000       0.00000000
Nb      10.43220225       0.26875332       5.15671787       0.00000000       0.00000000       0.00000000
Nb      12.03138205       8.50395358       5.79862249       0.00000000       0.00000000       0.00000000
Nb      13.16427346      22.07521370       4.24188936       0.00000000       0.00000000       0.00000000
Nb       8.43393762       8.11702404      20.36475797       0.00000000       0.00000000       0.00000000
Nb       5.40938223       9.15958439      21.55973911       0.00000000       0.00000000       0.00000000
Nb      11.51297197       0.96273412       2.38692415       0.00000000       0.00000000       0.00000000
Nb      19.54596230       2.47352091       3.53224413       0.00000000       0.00000000       0.00000000
Nb       3.49629398      18.22284799       3.50308994       0.00000000       0.00000000       0.00000000
Nb       5.34874641      11.46760857       0.93462080       0.00000000       0.00000000       0.00000000
Nb       7.20003458       5.36767904      20.96575638       0.00000000       0.00000000       0.00000000
Nb      20.11405492      20.99024602      21.57094150       0.00000000       0.00000000       0.00000000
Nb      13.10044755       7.38044329       0.83050466       0.00000000       0.00000000       0.00000000
Ta       2.61100012      15.45433236       4.20243572       0.00000000       0.00000000       0.00000000
Ta      16.56260111       1.21905501      18.25633949       0.00000000       0.00000000       0.00000000
Ta       9.57464693      15.67336142       1.56897348       0.00000000       0.00000000       0.00000000
Ta      20.81546336       0.81741072      20.90544821       0.00000000       0.00000000       0.00000000
Ta      20.79786488      20.57114067       6.06684232       0.00000000       0.00000000       0.00000000
Ta       9.46378924      21.10578128      18.56694026       0.00000000       0.00000000       0.00000000
Ta      13.61822851      17.21946772      22.78878794       0.00000000       0.00000000       0.00000000
Ta      12.04579615      12.38126953      21.20393230       0.00000000       0.00000000       0.00000000
Ta      22.66758713      13.87425958       3.51528265       0.00000000       0.00000000       0.00000000
Ta      13.12552511      13.21336415      18.26377177       0.00000000       0.00000000       0.00000000
Ta       4.41990840      21.42116564       2.81162391       0.00000000       0.00000000       0.00000000
Ta      17.03994109      16.09469172       5.47778640       0.00000000       0.00000000       0.00000000
Ta      19.68750074      18.25910589      18.98681172       0.00000000       0.00000000       0.00000000
Ta      10.21575456       8.54928966       1.73200564       0.00000000       0.00000000       0.00000000
Ta       7.54135159      13.22745038      17.94194624       0.00000000       0.00000000       0.00000000
Ta       8.31628603      12.53279124       2.20630190       0.00000000       0.00000000       0.00000000
Ta      16.98456333      21.54423842       0.20023646       0.00000000       0.00000000       0.00000000
Ta       7.76499651      12.10313931       5.61430738       0.00000000       0.00000000       0.00000000
Ta      18.13804203       1.98710401      22.19032697       0.00000000       0.00000000       0.00000000
Ta       8.22156215       4.79833989       5.16645277       0.00000000       0.00000000       0.00000000
Ta      18.18075094      22.29790730      20.09964807       0.00000000       0.00000000       0.00000000
Ta       7.38299604       7.42977620       0.39387465       0.00000000       0.00000000       0.00000000
Ta       2.99183983       6.07378178      17.85826477       0.00000000       0.00000000       0.00000000
Ta       4.71088581       1.96206695      17.76065891       0.00000000       0.00000000       0.00000000
Ta      11.68545922      21.68108455       0.20928913       0.00000000       0.00000000       0.00000000
Ta      10.98448143      11.57376665       1.01174239       0.00000000       0.00000000       0.00000000
Ta      14.75062860       9.30907403      17.75852088       0.00000000       0.00000000       0.00000000
Ta       2.16690085       3.26754030      18.80816667       0.00000000       0.00000000       0.00000000
Ta      14.95110481       0.78022924      20.88923446       0.00000000       0.00000000       0.00000000
Ta       7.73469149       1.43112904       6.15056217       0.00000000       0.00000000       0.00000000
Ta      20.14087585      12.66999745       2.40166326       0.00000000       0.00000000       0.00000000
Ta      17.93265074      14.69405592       0.07902599       0.00000000       0.00000000       0.00000000
Ta       8.09266907      10.10482856      22.87141196       0.00000000       0.00000000       0.00000000
Ta      19.52083615       9.75275898       3.15653401       0.00000000       0.00000000       0.00000000
Ta       1.27243455      17.89032060      22.39625247       0.00000000       0.00000000       0.00000000
Ta       2.44300273      18.22701500      19.51540763       0.00000000       0.00000000       0.00000000
Ta       7.53356662      15.05748705      20.28017366       0.00000000       0.00000000       0.00000000
Ta      14.25108916      12.78402296       2.19843641       0.00000000       0.00000000       0.00000000
Ta       3.62495805       7.92657308       4.59636638       0.00000000       0.00000000       0.00000000
Ta      22.02488216       1.45495547      18.00761107       0.00000000       0.00000000       0.00000000
Ta       4.68807972      14.30178519      19.02921146       0.00000000       0.00000000       0.00000000
Ta      13.98490690       8.22598933      20.66604799       0.00000000       0.00000000       0.00000000
Ta      22.16703858      21.67281267       2.40544308       0.00000000       0.00000000       0.00000000
Ta       5.26843678      13.51288285       3.26606230       0.00000000       0.00000000       0.00000000
Ta      11.40273018      17.26036280      18.33310340       0.00000000       0.00000000       0.00000000
Ta       0.90193911      11.77238348      21.21662755       0.00000000       0.00000000       0.00000000
Ta      14.43930566      14.91364281       4.73214058       0.00000000       0.00000000       0.00000000
Ta      13.13911582       2.99327737      19.04264082       0.00000000       0.00000000       0.00000000
Ta       7.27827373       9.62201112       2.95155847       0.00000000       0.00000000       0.00000000
Ta      16.18460702       3.55767653      20.33978536       0.00000000       0.00000000       0.00000000
Ta       6.65928449      10.02844413      18.35856572       0.00000000       0.00000000       0.00000000
Ta      22.59105776       5.98137126       6.38766246       0.00000000       0.00000000       0.00000000
Ta      16.22845456      16.32322467      21.17196823       0.00000000       0.00000000       0.00000000
Ta       0.07948029       1.50466877       2.20184736       0.00000000       0.00000000       0.00000000
Ta      14.29177124      22.89099111       1.34471747       0.00000000       0.00000000       0.00000000
Ta       9.43488882       0.33912440      20.83407584       0.00000000       0.00000000       0.00000000
Ta       2.70169932      20.46946459      21.72292758       0.00000000       0.00000000       0.00000000
Ta       1.53686970       4.91707449      21.42204992       0.00000000       0.00000000       0.00000000
Ta      11.28024461       9.21988273      21.98465781       0.00000000       0.00000000       0.00000000
Ta      11.40000381       6.92268509      19.12855659       0.00000000       0.00000000       0.00000000
Ta       6.41380864      12.13864021      21.19513258       0.00000000       0.00000000       0.00000000
Ti       1.74012604      22.80966408       4.01476058       0.00000000       0.00000000       0.00000000
Ti      16.06719400       0.39271061       5.42950916       0.00000000       0.00000000       0.00000000
Ti      16.70269157       6.84375369      19.71220429       0.00000000       0.00000000       0.00000000
Ti       2.63012888       4.87723324       5.61376838       0.00000000       0.00000000       0.00000000
Ti       0.60372745      18.98296092       5.35544887       0.00000000       0.00000000       0.00000000
Ti       4.74569336       6.22094576      22.35335793       0.00000000       0.00000000       0.00000000
Ti      21.20855124      21.76043229      18.76201988       0.00000000       0.00000000       0.00000000
Ti       6.53772947      16.79752069       2.74401637       0.00000000       0.00000000       0.00000000
Ti       8.65362874      22.78438246       0.86310493       0.00000000       0.00000000       0.00000000
Ti       9.51305942       3.61739764      22.47882709       0.00000000       0.00000000       0.00000000
Ti      15.55083776      15.56882511       1.69834088       0.00000000       0.00000000       0.00000000
Ti       5.72029703       3.05437736       4.97785556       0.00000000       0.00000000       0.00000000
Ti      22.85074381      11.62679219       1.16478049       0.00000000       0.00000000       0.00000000
Ti       5.80366099      15.82622644       5.57936968       0.00000000       0.00000000       0.00000000
Ti       2.07706788      11.86623290       5.28235502       0.00000000       0.00000000       0.00000000
Ti      21.91462736       6.45415475      18.90605513       0.00000000       0.00000000       0.00000000
Ti      10.25995704       4.31590499      19.92572002       0.00000000       0.00000000       0.00000000
Ti      20.99618605      13.38834859      21.89024882       0.00000000       0.00000000       0.00000000
Ti      17.09891958      13.83785372       3.44337613       0.00000000       0.00000000       0.00000000
Ti       9.41854407      11.22827334      19.93745130       0.00000000       0.00000000       0.00000000
Ti      21.78353233      14.29458099      19.04018890       0.00000000       0.00000000       0.00000000
Ti       8.98850142      13.19766553      22.15962178       0.00000000       0.00000000       0.00000000
Ti       8.69305484       2.49440078       3.12447864       0.00000000       0.00000000       0.00000000
Ti       2.93052043      10.34576942       0.01987729       0.00000000       0.00000000       0.00000000
Ti      22.22323823       1.07423635       4.73622969       0.00000000       0.00000000       0.00000000
Ti       4.65729932       8.32285941       1.50016228       0.00000000       0.00000000       0.00000000
Ti      20.93279269       7.66716123       4.79034765       0.00000000       0.00000000       0.00000000
Ti      15.32634770      11.76812305      19.86601454       0.00000000       0.00000000       0.00000000
Ti       9.16219645       7.63752052       4.76944598       0.00000000       0.00000000       0.00000000
Ti      16.25813168      18.64113315       0.58238258       0.00000000       0.00000000       0.00000000
Ti       3.90528593       5.56852043       2.42183339       0.00000000       0.00000000       0.00000000
Ti      15.29027036      13.57270440      22.25949465       0.00000000       0.00000000       0.00000000
Ti       6.55516011      22.24123131      19.77185847       0.00000000       0.00000000       0.00000000
Ti       6.77047036      20.00230657      17.75198556       0.00000000       0.00000000       0.00000000
Ti       4.01220670       0.56000478      20.26381495       0.00000000       0.00000000       0.00000000
Ti      10.04040295       6.35136729      22.25225506       0.00000000       0.00000000       0.00000000
Zr       0.08744858       3.79684027       4.60229747       0.00000000       0.00000000       0.00000000
Zr       0.89105053      12.91190747      20.74276196       0.00000000       0.00000000       0.00000000
Zr      13.17667537      11.62799071       5.50474530       0.00000000       0.00000000       0.00000000
Zr      13.18616374       5.27016847      21.40079538       0.00000000       0.00000000       0.00000000
Zr       5.67968807       1.50161048       2.20130063       0.00000000       0.00000000       0.00000000
Zr      13.92324361      18.41874786      19.45394170       0.00000000       0.00000000       0.00000000
Zr       0.98743844       4.47542346       1.53382038       0.00000000       0.00000000       0.00000000
Zr      19.96479909      15.20262620       4.66338607       0.00000000       0.00000000       0.00000000
Zr       1.08948835       8.96517482       5.94692220       0.00000000       0.00000000       0.00000000
Zr      12.26347755      14.32460029       0.69084518       0.00000000       0.00000000       0.00000000
Zr      14.06600347       2.35909942       3.46669689       0.00000000       0.00000000       0.00000000
Zr      21.80297064      18.95995371       0.42942153       0.00000000       0.00000000       0.00000000
Zr       2.80481905       8.06744985      20.55146525       0.00000000       0.00000000       0.00000000
Zr       6.59805174      14.39232170       0.66639885       0.00000000       0.00000000       0.00000000
Zr      13.31971080      15.24797278      20.42706568       0.00000000       0.00000000       0.00000000
Zr      15.07171918      20.42266759       6.18164222       0.00000000       0.00000000       0.00000000
Zr      18.94307168      11.99545943       5.35606112       0.00000000       0.00000000       0.00000000
Zr       7.64134890       2.87380570      18.98627193       0.00000000       0.00000000       0.00000000
Zr      16.89758649      17.29786595      17.96225983       0.00000000       0.00000000       0.00000000
Zr      15.84141552      20.97750959       3.26598462       0.00000000       0.00000000       0.00000000
Zr       4.62562644      10.84982718       4.31350762       0.00000000       0.00000000       0.00000000
Zr      12.43146350      19.14836149       5.32176590       0.00000000       0.00000000       0.00000000
Zr       8.48022336      18.15085752      19.47070205       0.00000000       0.00000000       0.00000000
Zr      18.95877513      22.21622227       4.42579646       0.00000000       0.00000000       0.00000000
Zr      21.93218874      10.57739355       4.24126211       0.00000000       0.00000000       0.00000000
Zr       2.64554009       0.19552417       1.03102187       0.00000000       0.00000000       0.00000000
Zr      20.50082822      15.93321626       1.45143180       0.00000000       0.00000000       0.00000000
Zr       5.44260754      21.81448137      22.65071182       0.00000000       0.00000000       0.00000000
Zr       4.54150882       0.63049714       5.26166385       0.00000000       0.00000000       0.00000000
Zr      14.11543901       5.82311816      18.40562035       0.00000000       0.00000000       0.00000000
Zr      21.74165880      12.87472491       6.38055768       0.00000000       0.00000000       0.00000000
Zr       2.18077003      13.09444415      17.80008066       0.00000000       0.00000000       0.00000000
Zr      22.57718760      17.12416657      17.94230041       0.00000000       0.00000000       0.00000000
Zr      21.85450102       3.60090512      20.40339464       0.00000000       0.00000000       0.00000000
Zr      10.42935330       1.62985329      17.86198668       0.00000000       0.00000000       0.00000000
Zr      21.15065295      10.92317689      19.44149219       0.00000000       0.00000000       0.00000000
Zr       1.97195923       7.47633882       0.33065744       0.00000000       0.00000000       0.00000000
Zr      19.59878579       7.95878419      20.47996622       0.00000000       0.00000000       0.00000000
Zr       8.62116973      20.64702970      21.59397910       0.00000000       0.00000000       0.00000000
Zr       6.72521109       2.27440798      21.88066705       0.00000000       0.00000000       0.00000000
Zr      16.85049020      19.19884419      20.56034210       0.00000000       0.00000000       0.00000000
Zr      19.05789739       2.42405879      19.07973687       0.00000000       0.00000000       0.00000000
Zr       9.99565217      14.01473939      19.25843602       0.00000000       0.00000000       0.00000000
Zr       1.65137890       9.82237918       2.75793425       0.00000000       0.00000000       0.00000000
C       10.41958824      10.30174031      12.46116400       0.00000000       0.00000000       0.00000000
C       21.19111937      12.59681693      14.85752955       0.00000000       0.00000000       0.00000000
C        5.74033717      18.49701870      17.23198438       0.00000000       0.00000000       0.00000000
C       22.37327062      11.42576814      12.80142692       0.00000000       0.00000000       0.00000000
C       18.00787510      19.84005963       8.37153050       0.00000000       0.00000000       0.00000000
C       15.03127619      21.74833510      13.14789253       0.00000000       0.00000000       0.00000000
C       22.89848218      16.98401581      15.45332390       0.00000000       0.00000000       0.00000000
C       21.09365664      22.24661321       7.22076759       0.00000000       0.00000000       0.00000000
C       10.02137245       3.32633419      14.50253241       0.00000000       0.00000000       0.00000000
C        6.97119207      18.28398600      10.95801123       0.00000000       0.00000000       0.00000000
C       22.75317436       8.51292581      16.66743162       0.00000000       0.00000000       0.00000000
C        1.77973949      15.22655203      10.69110607       0.00000000       0.00000000       0.00000000
C        2.29857113      17.52921964       6.79657908       0.00000000       0.00000000       0.00000000
C       17.31109024      10.48476557      13.98190239       0.00000000       0.00000000       0.00000000
C       16.23139590      12.86546553       8.35402655       0.00000000       0.00000000       0.00000000
C       19.01709609       5.74114670      15.75171129       0.00000000       0.00000000       0.00000000
C        3.20205242      20.03534852       6.38803977       0.00000000       0.00000000       0.00000000
C       10.10171421       2.71366863       8.41313250       0.00000000       0.00000000       0.00000000
C        0.48471441      11.68141590      12.26482998       0.00000000       0.00000000       0.00000000
C       19.24068276      22.82848934      12.20471070       0.00000000       0.00000000       0.00000000
C        4.70424027       9.46171765      10.24539868       0.00000000       0.00000000       0.00000000
C        0.94957901       7.69845949       9.40392904       0.00000000       0.00000000       0.00000000
C       12.64738274      12.91114083      16.49316119       0.00000000       0.00000000       0.00000000
C        8.13280043       1.87089043       7.50791633       0.00000000       0.00000000       0.00000000
C       16.72214352      20.97383098      15.75309320       0.00000000       0.00000000       0.00000000
C       21.07630326       8.06462985      13.99634346       0.00000000       0.00000000       0.00000000
C       16.10428598       2.36502318       9.60319501       0.00000000       0.00000000       0.00000000
C       18.73123935       0.95132994       9.31664309       0.00000000       0.00000000       0.00000000
C        8.51494664       1.12919613      16.45855536       0.00000000       0.00000000       0.00000000
Ti       4.25077652      15.64021728      11.28389734       0.00000000       0.00000000       0.00000000
Ti       9.18890920      19.33048211      11.87455357       0.00000000       0.00000000       0.00000000
C       18.37243597       3.12717627      11.42982413       0.00000000       0.00000000       0.00000000
C       14.99247881      10.01879930       6.60524274       0.00000000       0.00000000       0.00000000
C        0.67216053       0.38345967      10.18581130       0.00000000       0.00000000       0.00000000
C       12.97091461       7.72146638       6.94855190       0.00000000       0.00000000       0.00000000
C        4.06976159       3.87761254      14.08837626       0.00000000       0.00000000       0.00000000
C        7.90792953       5.01119583       9.28162725       0.00000000       0.00000000       0.00000000
C       22.55335364       1.61156790      15.62357469       0.00000000       0.00000000       0.00000000
C        5.92656872       9.92809249       7.13993171       0.00000000       0.00000000       0.00000000
C       12.27372830      17.11593897      12.11441749       0.00000000       0.00000000       0.00000000
C        4.46362615       6.98776323       8.85201558       0.00000000       0.00000000       0.00000000
C        6.94424303      17.59456884       7.36732953       0.00000000       0.00000000       0.00000000
C       22.42020218       8.52201727       8.96497167       0.00000000       0.00000000       0.00000000
C        3.86654504       0.56740678      14.08196849       0.00000000       0.00000000       0.00000000
C        9.89448130      20.03215902       7.92174605       0.00000000       0.00000000       0.00000000
C        1.20111903       2.45480752      14.15288545       0.00000000       0.00000000       0.00000000
C       19.99470987      16.82996613      16.45664743       0.00000000       0.00000000       0.00000000
C        6.65881328       4.11437819      12.92622950       0.00000000       0.00000000       0.00000000
C        9.31176123      16.18930600      13.51875996       0.00000000       0.00000000       0.00000000
C       11.17412621       2.69172510       9.10879049       0.00000000       0.00000000       0.00000000
C       19.04520171      15.99501939       7.23784919       0.00000000       0.00000000       0.00000000
C       21.40233968       8.90531828       9.93137455       0.00000000       0.00000000       0.00000000
C       22.65004549      15.23948063      12.71733325       0.00000000       0.00000000       0.00000000
C       12.53580027      14.54977254      12.58684471       0.00000000       0.00000000       0.00000000
C        5.10665547      13.62736975      10.48680085       0.00000000       0.00000000       0.00000000
C        5.66753011       9.52161898      15.00019366       0.00000000       0.00000000       0.00000000
C       20.26746182      19.81421023      15.84316904       0.00000000       0.00000000       0.00000000
C        9.50516069      11.87797617      14.64096213       0.00000000       0.00000000       0.00000000
C        9.83402636      20.67581993       9.18843054       0.00000000       0.00000000       0.00000000
C        5.02797551       0.39726234       9.71110344       0.00000000       0.00000000       0.00000000
C       16.98774270       9.25505232       9.59362183       0.00000000       0.00000000       0.00000000
C       21.67810825       0.39263653      11.57907859       0.00000000       0.00000000       0.00000000
C        4.13727412       1.28023487       9.44560653       0.00000000       0.00000000       0.00000000
C       16.78039425       4.88664425      12.96521579       0.00000000       0.00000000       0.00000000
C       21.10507269       6.64051339       7.16848494       0.00000000       0.00000000       0.00000000
C       22.27501151      11.06950229      11.57332490       0.00000000       0.00000000       0.00000000
C       11.37073211      17.40341052       6.53475703       0.00000000       0.00000000       0.00000000
C        8.26066341      11.10542795      10.78132982       0.00000000       0.00000000       0.00000000
C       13.13863642      18.94876847       8.58975936       0.00000000       0.00000000       0.00000000
C       15.57344538      15.17077830      15.07806069       0.00000000       0.00000000       0.00000000
C        7.71971421       8.19798271      13.70374983       0.00000000       0.00000000       0.00000000
C        6.89097378      15.63046395      17.11169893       0.00000000       0.00000000       0.00000000
C       11.90805166      21.50516427      11.62477869       0.00000000       0.00000000       0.00000000
C       18.38991890       7.49049122      11.95850204       0.00000000       0.00000000       0.00000000
C        6.78694510       3.91857008      10.17370539       0.00000000       0.00000000       0.00000000
C       20.16107603      16.46473863      10.00321035       0.00000000       0.00000000       0.00000000
C       20.54436204      20.39523607      14.48175577       0.00000000       0.00000000       0.00000000
C       16.01850142       9.96266233      10.39648472       0.00000000       0.00000000       0.00000000
C       11.03157578       5.84994183       8.52757041       0.00000000       0.00000000       0.00000000
C       22.03535375      18.97426779       7.11471312       0.00000000       0.00000000       0.00000000
C       22.72273839      16.09105747       7.96721122       0.00000000       0.00000000       0.00000000
C       17.61103523       6.14783578      15.94209944       0.00000000       0.00000000       0.00000000
C        5.61506877      22.33771977      16.38529953       0.00000000       0.00000000       0.00000000
C       22.05864048       3.58963195      13.29529036       0.00000000       0.00000000       0.00000000
C       16.75568878      16.25943133       9.42644946       0.00000000       0.00000000       0.00000000
C       16.37134182      19.83864695      10.26499458       0.00000000       0.00000000       0.00000000
C        7.44646247       1.74967592      11.89411139       0.00000000       0.00000000       0.00000000
C        3.84302655       0.12201255      12.38933342       0.00000000       0.00000000       0.00000000
C        6.41237012      11.80950219      12.46790860       0.00000000       0.00000000       0.00000000
C        1.55653778      22.81724111      11.49891494       0.00000000       0.00000000       0.00000000
C       12.28322819      21.47476594       7.06303007       0.00000000       0.00000000       0.00000000
C       18.93462119      17.85471908       6.82293758       0.00000000       0.00000000       0.00000000
C       14.32970365      19.10728363      16.04736427       0.00000000       0.00000000       0.00000000
C        3.73280513      18.01570428      14.42581046       0.00000000       0.00000000       0.00000000
C        8.44562173       1.08835924      11.74930979       0.00000000       0.00000000       0.00000000
C        1.68751691       4.90039227      17.07824734       0.00000000       0.00000000       0.00000000
C       12.98177191      18.30264877      15.72150491       0.00000000       0.00000000       0.00000000
C       16.96072408      21.58803238      13.84568937       0.00000000       0.00000000       0.00000000
C       19.13629661       7.41544492       8.39564174       0.00000000       0.00000000       0.00000000
C       19.48429727      16.81879218      14.98941529       0.00000000       0.00000000       0.00000000
C       12.48164194      16.13296628      13.16080187       0.00000000       0.00000000       0.00000000
C       14.34542693       9.81954147      10.15037777       0.00000000       0.00000000       0.00000000
C        7.91471618       7.50755306      10.85832104       0.00000000       0.00000000       0.00000000
C        2.23711676      11.13617647      12.09169289       0.00000000       0.00000000       0.00000000
C       18.79359600      11.96677323      11.20431211       0.00000000       0.00000000       0.00000000
C        8.46218716      18.42764450      14.90523107       0.00000000       0.00000000       0.00000000
C        3.31851202       6.87727708      11.95388392       0.00000000       0.00000000       0.00000000
C        3.70793919      12.67211469      14.84700738       0.00000000       0.00000000       0.00000000
C       11.10984986       7.34766403      10.16212000       0.00000000       0.00000000       0.00000000
C       13.99970571       4.68486522       9.93277326       0.00000000       0.00000000       0.00000000
C        3.41285838       6.51406277       8.23526697       0.00000000       0.00000000       0.00000000
C        9.19136558      13.09759948       8.02948065       0.00000000       0.00000000       0.00000000
C        1.55240690      21.30745930      14.95468232       0.00000000       0.00000000       0.00000000
C        8.78200207      17.27153589      14.19869853       0.00000000       0.00000000       0.00000000
C       10.48391902       4.96907126      12.18520725       0.00000000       0.00000000       0.00000000
C       10.77771043      13.55908544       8.80543312       0.00000000       0.00000000       0.00000000
C       14.92927951       9.66443860      14.33037863       0.00000000       0.00000000       0.00000000
C       12.34659889      18.11708141      11.15794041       0.00000000       0.00000000       0.00000000
C        0.62210335       7.70433018       7.78066381       0.00000000       0.00000000       0.00000000
C        2.00121293      13.23083146       8.05462501       0.00000000       0.00000000       0.00000000
C        2.52853463      12.23762474       7.55240179       0.00000000       0.00000000       0.00000000
C        0.32925570       6.78141279      14.33709799       0.00000000       0.00000000       0.00000000
C       19.27087275       6.60856417      12.25419842       0.00000000       0.00000000       0.00000000
C        0.67808562       5.92051987      10.20771339       0.00000000       0.00000000       0.00000000
C        0.41033798      14.46159568      14.35098065       0.00000000       0.00000000       0.00000000
C        6.95414719      21.31149348      14.50853672       0.00000000       0.00000000       0.00000000
C       16.29985517       5.76974591       9.41302141       0.00000000       0.00000000       0.00000000
C        3.43087529      22.23025757       9.01363893       0.00000000       0.00000000       0.00000000
C        3.80496305      20.88300128      12.33362496       0.00000000       0.00000000       0.00000000
C       17.11917576      16.59869271      13.19134739       0.00000000       0.00000000       0.00000000
C        3.71708992      15.33452496      15.45650937       0.00000000       0.00000000       0.00000000
C       10.74490964      14.46476781       9.92177788       0.00000000       0.00000000       0.00000000
C       11.45251422      11.45251422      11.96281572       0.00000000       0.00000000       0.00000000
C       13.53573814      22.60230976       9.50464666       0.00000000       0.00000000       0.00000000
C       10.51612541      21.52859676      14.47444476       0.00000000       0.00000000       0.00000000
C       14.27486059       1.81260482      15.06164225       0.00000000       0.00000000       0.00000000
C       10.74597402       5.73418863       7.21947675       0.00000000       0.00000000       0.00000000
C        4.14007303       6.82177711      15.91340681       0.00000000       0.00000000       0.00000000
C       12.10970658       8.40840982      16.63542530       0.00000000       0.00000000       0.00000000
C       15.64907783      16.09680089      13.97212180       0.00000000       0.00000000       0.00000000
C       14.04374800      14.94102296       8.07073289       0.00000000       0.00000000       0.00000000
C       17.32539124      16.55887690      16.33693388       0.00000000       0.00000000       0.00000000
C        4.31708828      21.95511491      11.81580799       0.00000000       0.00000000       0.00000000
C       18.73178533      13.53830268      13.87239789       0.00000000       0.00000000       0.00000000
C       20.04887949      15.26661345      10.60394174       0.00000000       0.00000000       0.00000000
C        5.99097006      20.70153203       7.83142772       0.00000000       0.00000000       0.00000000
C       21.70097341      20.71891887      11.77773380       0.00000000       0.00000000       0.00000000
C        5.95166727       8.40360000      14.07403223       0.00000000       0.00000000       0.00000000
C       18.87900313      10.18175644       8.42914699       0.00000000       0.00000000       0.00000000
C       17.88624572       4.36366321       6.54668813       0.00000000       0.00000000       0.00000000
C       16.84307939      20.63965178       8.93268545       0.00000000       0.00000000       0.00000000
C        1.91695190       9.25400781      17.11247891       0.00000000       0.00000000       0.00000000
C       11.64731016      13.40533079      17.24594709       0.00000000       0.00000000       0.00000000
C       13.86459925       2.24410448       7.10738115       0.00000000       0.00000000       0.00000000
C       17.44658378      18.18318134      16.38358537       0.00000000       0.00000000       0.00000000
C       16.42398994       1.78859187      16.24092285       0.00000000       0.00000000       0.00000000
C        0.07709110      16.93819386      16.79712134       0.00000000       0.00000000       0.00000000
C       20.32561999       1.58347379      14.91902423       0.00000000       0.00000000       0.00000000
C        9.86376627       4.29136100      15.54717338       0.00000000       0.00000000       0.00000000
C       13.42393591      14.78990560       6.86113459       0.00000000       0.00000000       0.00000000
C       21.87286776      12.18858190      16.06583279       0.00000000       0.00000000       0.00000000
C       11.48825707       2.06630286      10.35110673       0.00000000       0.00000000       0.00000000
C       22.37063889       5.19847538      16.13362871       0.00000000       0.00000000       0.00000000
C       11.60038259       8.93855395      15.35729467       0.00000000       0.00000000       0.00000000
C       15.93300849      10.56180875      13.56578234       0.00000000       0.00000000       0.00000000
C        2.73663012       4.49548062      13.81280161       0.00000000       0.00000000       0.00000000
C        7.85724709      18.91774643      11.72816035       0.00000000       0.00000000       0.00000000
C        3.59962507       3.67857126       7.78226094       0.00000000       0.00000000       0.00000000
C        7.79566209       7.28733374      15.13386826       0.00000000       0.00000000       0.00000000
C       15.86096943       1.64298098      11.00612755       0.00000000       0.00000000       0.00000000
C       18.79241598       4.06042365      17.13363992       0.00000000       0.00000000       0.00000000
C       22.69486888      15.95937160      16.47827196       0.00000000       0.00000000       0.00000000
C       21.39363549       3.80227775       7.17881667       0.00000000       0.00000000       0.00000000
Hf      13.53944596      22.64587462      14.01701814       0.00000000       0.00000000       0.00000000
Hf      15.15305635       8.84712988      12.36292645       0.00000000       0.00000000       0.00000000
Hf       4.38946214      11.24462734      13.62892120       0.00000000       0.00000000       0.00000000
Hf       5.06701997      12.93157228       7.92901542       0.00000000       0.00000000       0.00000000
Hf       0.10683366      17.50737339       7.31344991       0.00000000       0.00000000       0.00000000
Hf      14.99359497       5.80684563      17.19542897       0.00000000       0.00000000       0.00000000
Hf       0.82156152      20.44683738      17.36268563       0.00000000       0.00000000       0.00000000
Hf      13.16166700      10.65407709      16.07999889       0.00000000       0.00000000       0.00000000
Hf       2.02251984       2.39276857       9.31349474       0.00000000       0.00000000       0.00000000
Hf      14.24108765      11.49911212       8.03855995       0.00000000       0.00000000       0.00000000
Hf      13.86533988      20.57238428      11.40620481       0.00000000       0.00000000       0.00000000
Hf       9.54279673       8.37790282      11.51911148       0.00000000       0.00000000       0.00000000
Hf      10.08004804       9.37568244      16.76504670       0.00000000       0.00000000       0.00000000
Hf      21.20350378       6.40947130       9.16569739       0.00000000       0.00000000       0.00000000
Hf      10.37032863       6.64050592      13.97128926       0.00000000       0.00000000       0.00000000
Hf       3.27095721       5.77585714      10.42356329       0.00000000       0.00000000       0.00000000
Hf      21.83489172       1.24873443       6.80168117       0.00000000       0.00000000       0.00000000
Hf      18.18118869      19.43617161      15.01428505       0.00000000       0.00000000       0.00000000
Hf      16.75017872       4.02038102      14.82598855       0.00000000       0.00000000       0.00000000
Hf      16.33548147      18.09012822      11.64776019       0.00000000       0.00000000       0.00000000
Hf       4.24904662      18.11143145      11.88793344       0.00000000       0.00000000       0.00000000
Hf      14.20594687      17.26307974       7.65268306       0.00000000       0.00000000       0.00000000
Hf      20.54561198      16.88500985      12.28016333       0.00000000       0.00000000       0.00000000
Hf       6.47224435       9.13758216      11.90600577       0.00000000       0.00000000       0.00000000
Hf      10.08838988      13.87420478      14.07831580       0.00000000       0.00000000       0.00000000
Hf       9.48352567      15.92424816      11.26984508       0.00000000       0.00000000       0.00000000
Hf       5.84696866       3.28245732       7.96872660       0.00000000       0.00000000       0.00000000
Hf      11.88440012       0.42021380      15.25243664       0.00000000       0.00000000       0.00000000
Hf       4.49329572      11.33868373      10.77552742       0.00000000       0.00000000       0.00000000
Hf      11.39566418      20.52887663      16.22677318       0.00000000       0.00000000       0.00000000
Nb       2.38610868      20.13926698      13.77135629       0.00000000       0.00000000       0.00000000
Nb      19.15078681       8.65493007       9.67493827       0.00000000       0.00000000       0.00000000
Nb       3.59639047       9.05815365      15.42706261       0.00000000       0.00000000       0.00000000
Nb       6.64506188       0.44842559      16.39806466       0.00000000       0.00000000       0.00000000
Nb       3.37534073      22.15928704       6.80304000       0.00000000       0.00000000       0.00000000
Nb      16.83270281      17.26996650       6.53712000       0.00000000       0.00000000       0.00000000
Nb       7.04702577      13.34330010      10.32817923       0.00000000       0.00000000       0.00000000
Nb      21.22151627       3.55288403      15.07103075       0.00000000       0.00000000       0.00000000
Nb       8.47358020      20.08963341      13.90253539       0.00000000       0.00000000       0.00000000
Nb      17.32446710       5.16846027      11.11131751       0.00000000       0.00000000       0.00000000
Nb      10.12031333      22.03052431      12.16591318       0.00000000       0.00000000       0.00000000
Nb      21.66588266      10.62475239      14.81611182       0.00000000       0.00000000       0.00000000
Nb      15.09883483      15.02016169       9.88347428       0.00000000       0.00000000       0.00000000
Nb      17.07924283      14.53863742       7.81575437       0.00000000       0.00000000       0.00000000
Nb       4.18370238       6.19294288      13.69499939       0.00000000       0.00000000       0.00000000
Nb      20.10621927      12.40898980      12.92564433       0.00000000       0.00000000       0.00000000
Nb      10.13614635      15.94405792      17.41178620       0.00000000       0.00000000       0.00000000
Nb       7.46381717       5.35010061      14.14597317       0.00000000       0.00000000       0.00000000
Nb       8.11729320      15.40335101      15.44125166       0.00000000       0.00000000       0.00000000
Nb       2.08853117      11.71290178      16.72181161       0.00000000       0.00000000       0.00000000
Nb      12.77072566      12.74605924      10.15731560       0.00000000       0.00000000       0.00000000
Nb       1.54414999      12.70846761      10.85514687       0.00000000       0.00000000       0.00000000
Nb      12.29842199       9.44208554      12.98444774       0.00000000       0.00000000       0.00000000
Nb      11.41375247      22.89044306       8.24746336       0.00000000       0.00000000       0.00000000
Nb       5.54427468      18.81292540      15.25458648       0.00000000       0.00000000       0.00000000
Nb      22.08589621       4.48761125      11.18505584       0.00000000       0.00000000       0.00000000
Nb      19.25714466       2.67818088       8.10284762       0.00000000       0.00000000       0.00000000
Nb      20.31551990       2.25887562      11.95998628       0.00000000       0.00000000       0.00000000
Nb      13.48631739       3.15947938      16.25150758       0.00000000       0.00000000       0.00000000
Nb       8.33769956       9.73907903      14.60812411       0.00000000       0.00000000       0.00000000
Nb       8.10673657       3.19140248      16.18298797       0.00000000       0.00000000       0.00000000
Nb      15.40970334      19.49486457       8.28836928       0.00000000       0.00000000       0.00000000
Nb      18.90941781      11.60729279      15.17667085       0.00000000       0.00000000       0.00000000
Nb       7.36288584      17.38609390      17.25456571       0.00000000       0.00000000       0.00000000
Nb      11.26925530      14.99585531       7.74831715       0.00000000       0.00000000       0.00000000
Nb       1.05485946       3.00832526      16.56396009       0.00000000       0.00000000       0.00000000
Nb       1.59641531      12.31767889      14.12111503       0.00000000       0.00000000       0.00000000
Nb       6.90991302      10.40330978      16.47805702       0.00000000       0.00000000       0.00000000
Ta       6.99173102      21.58673819      11.55079451       0.00000000       0.00000000       0.00000000
Ta       4.18832373      20.73148569       9.95613440       0.00000000       0.00000000       0.00000000
Ta       6.33096349       7.47723423      16.44891181       0.00000000       0.00000000       0.00000000
Ta      11.28998950      18.32987109       8.24526464       0.00000000       0.00000000       0.00000000
Ta      19.11394272       1.65768266      16.20361637       0.00000000       0.00000000       0.00000000
Ta       4.52999722      13.87619006      12.65642490       0.00000000       0.00000000       0.00000000
Ta       1.93847406      19.65976842       7.89209021       0.00000000       0.00000000       0.00000000
Ta      20.46440193      20.38410610       7.27038047       0.00000000       0.00000000       0.00000000
Ta      15.07624808      20.13620421      14.05647266       0.00000000       0.00000000       0.00000000
Ta      11.38845374      11.71307986       7.03136506       0.00000000       0.00000000       0.00000000
Ta       5.45835205      16.10511438      14.70148017       0.00000000       0.00000000       0.00000000
Ta      21.23370655       6.11182730      13.26594556       0.00000000       0.00000000       0.00000000
Ta      14.34519385       0.35191671      16.86581453       0.00000000       0.00000000       0.00000000
Ta       0.21816968       9.48191224      15.98339774       0.00000000       0.00000000       0.00000000
Ta      12.05156866       4.38013485      11.00387398       0.00000000       0.00000000       0.00000000
Ta      22.40132462      15.72967967      10.00656784       0.00000000       0.00000000       0.00000000
Ta      11.40427767       6.43127021      17.07706868       0.00000000       0.00000000       0.00000000
Ta      12.59906800       9.54642989      10.60208413       0.00000000       0.00000000       0.00000000
Ta       2.71303878       8.21131674      10.77236090       0.00000000       0.00000000       0.00000000
Ta       5.98367497       2.47345581      13.93320477       0.00000000       0.00000000       0.00000000
Ta      17.79149276       1.01778461      11.26031182       0.00000000       0.00000000       0.00000000
Ta      17.17432967      12.59976125      12.87004801       0.00000000       0.00000000       0.00000000
Ta       4.75768379      17.01408732       7.47899766       0.00000000       0.00000000       0.00000000
Ta      17.80209791      21.04728371      11.99496726       0.00000000       0.00000000       0.00000000
Ta      19.89647053      19.70412428      12.21486921       0.00000000       0.00000000       0.00000000
Ta       7.01639872       0.19909548       8.52296847       0.00000000       0.00000000       0.00000000
Ta      18.06522166      15.31219035      14.69735453       0.00000000       0.00000000       0.00000000
Ta       9.52110831       5.99776277      10.36024429       0.00000000       0.00000000       0.00000000
Ta      15.35025302       3.93188507       8.56233339       0.00000000       0.00000000       0.00000000
Ta      17.50139255      11.50920643       9.77121559       0.00000000       0.00000000       0.00000000
Ta      18.04264130      14.76823474      11.03519066       0.00000000       0.00000000       0.00000000
Ta       2.27440343      22.80769802      13.60378110       0.00000000       0.00000000       0.00000000
Ta      20.96782683      17.13668848       7.48902834       0.00000000       0.00000000       0.00000000
Ta      13.89454629       7.70940374      14.99635180       0.00000000       0.00000000       0.00000000
Ta      16.26055604       0.69165751      14.40168356       0.00000000       0.00000000       0.00000000
Ta       8.29608961       2.59712112       9.72879401       0.00000000       0.00000000       0.00000000
Ti       9.21103062      15.95850951       6.90785183       0.00000000       0.00000000       0.00000000
Ti       2.53491729      16.32747520      14.34189768       0.00000000       0.00000000       0.00000000
Ti       1.90216959      21.11592043      11.16940437       0.00000000       0.00000000       0.00000000
Ti       6.44894759      16.01991557      10.48966508       0.00000000       0.00000000       0.00000000
Ti      13.01084188       6.33704733       9.10017184       0.00000000       0.00000000       0.00000000
Ti       8.61823095      11.40748064      12.52425325       0.00000000       0.00000000       0.00000000
Ti      16.88257479       0.47154801       8.54542309       0.00000000       0.00000000       0.00000000
Ti       1.12413603       9.38591002      13.05158928       0.00000000       0.00000000       0.00000000
Ti      14.21532703      15.21142092      13.58259950       0.00000000       0.00000000       0.00000000
Ti       6.27275051       5.41783685      11.69848989       0.00000000       0.00000000       0.00000000
Ti       3.31166405      21.74602305      16.59627818       0.00000000       0.00000000       0.00000000
Ti       1.33029218       9.68107130       8.35662619       0.00000000       0.00000000       0.00000000
Ti       2.87070054       2.13454878      12.53587335       0.00000000       0.00000000       0.00000000
Ti       8.05101044       1.09118605      14.51211378       0.00000000       0.00000000       0.00000000
Ti      10.02430874      12.87703480      10.80982615       0.00000000       0.00000000       0.00000000
Ti       1.97824835      14.76274213      16.36105293       0.00000000       0.00000000       0.00000000
Ti      15.37054186      16.22906572      17.12990343       0.00000000       0.00000000       0.00000000
Ti      10.87244112      19.34539073      10.86772238       0.00000000       0.00000000       0.00000000
Ti      14.19889336      12.05035454      12.29853195       0.00000000       0.00000000       0.00000000
Ti       6.41565100      22.80586195       7.36141142       0.00000000       0.00000000       0.00000000
Ti      16.87875193       9.00006890      17.16626354       0.00000000       0.00000000       0.00000000
Ti       8.92258456      12.13145790      16.79037756       0.00000000       0.00000000       0.00000000
Ti       2.48682474       7.46190233       6.86369760       0.00000000       0.00000000       0.00000000
Ti      13.76885263      20.72802487       7.32131327       0.00000000       0.00000000       0.00000000
Ti       7.62028152      21.88726702      16.23921832       0.00000000       0.00000000       0.00000000
Ti      17.57603508       6.17904661       7.93657484       0.00000000       0.00000000       0.00000000
Ti       0.94800001       4.80913437      14.30171946       0.00000000       0.00000000       0.00000000
Ti       2.32467329      18.65009436      15.90310832       0.00000000       0.00000000       0.00000000
Zr       0.58010708       4.27005861      11.20591614       0.00000000       0.00000000       0.00000000
Zr       3.38519978      15.09601766       9.33581944       0.00000000       0.00000000       0.00000000
Zr      15.14287010       8.71224023       8.54747154       0.00000000       0.00000000       0.00000000
Zr       0.80685962       5.24278146       8.06649636       0.00000000       0.00000000       0.00000000
Zr      13.13287644       1.40495509       9.00943757       0.00000000       0.00000000       0.00000000
Zr      21.53113913      14.35968620       6.78348952       0.00000000       0.00000000       0.00000000
Zr       1.57494966       7.06648971      17.43551550       0.00000000       0.00000000       0.00000000
Zr       8.08448626      20.00191210       8.54883449       0.00000000       0.00000000       0.00000000
Zr      10.84466279      17.37298610      14.31240444       0.00000000       0.00000000       0.00000000
Zr       5.38172942       2.71913454      11.00464090       0.00000000       0.00000000       0.00000000
Zr      20.80905037       9.00363116      12.09690658       0.00000000       0.00000000       0.00000000
Zr       0.42319518      14.87239282       8.97561359       0.00000000       0.00000000       0.00000000
Zr      21.18720886      15.20104294      14.81814516       0.00000000       0.00000000       0.00000000
Zr       0.64656301      17.85916648      11.58084544       0.00000000       0.00000000       0.00000000
Zr       2.57523013       0.45929728      17.02728504       0.00000000       0.00000000       0.00000000
Zr      17.07801282      21.05556543       6.59439996       0.00000000       0.00000000       0.00000000
Zr      11.20508305       2.69906886       6.62818052       0.00000000       0.00000000       0.00000000
Zr       5.12087010      13.21195040      15.87877020       0.00000000       0.00000000       0.00000000
Zr      14.66264021       3.04758918      12.33430849       0.00000000       0.00000000       0.00000000
Zr       1.15772869       0.28592069      13.28177415       0.00000000       0.00000000       0.00000000
Zr      13.10252267      15.64596832      15.48750414       0.00000000       0.00000000       0.00000000
Zr      21.45936476      18.33902574      14.27261796       0.00000000       0.00000000       0.00000000
Zr       4.64548572      21.74430848      14.14448977       0.00000000       0.00000000       0.00000000
Zr      22.42422368      21.22756023      13.66905365       0.00000000       0.00000000       0.00000000
Zr      12.58945542      16.00157533      10.03684093       0.00000000       0.00000000       0.00000000
Zr      12.13688659      19.70585021      13.58633895       0.00000000       0.00000000       0.00000000
Zr      18.51350162       7.41885393      14.19954386       0.00000000       0.00000000       0.00000000
Zr      10.56942968       8.80542025       8.46659819       0.00000000       0.00000000       0.00000000
Zr       0.31374193      22.00704982       8.53565251       0.00000000       0.00000000       0.00000000
Zr      19.10329692      22.40261645      15.11431761       0.00000000       0.00000000       0.00000000
Zr      20.84723912       9.03090505       7.05253286       0.00000000       0.00000000       0.00000000
Zr      15.13693697      13.09675022      15.79472018       0.00000000       0.00000000       0.00000000
Zr      20.84909091       7.23114238      16.09438486       0.00000000       0.00000000       0.00000000
Zr      18.44263067      17.87583421       9.24176770       0.00000000       0.00000000       0.00000000
Zr      20.48956871      11.66996127       9.85890343       0.00000000       0.00000000       0.00000000
Zr       7.05867630      10.26586834       8.90712493       0.00000000       0.00000000       0.00000000
Zr       9.62021220       3.29555561      12.76552519       0.00000000       0.00000000       0.00000000
Zr       7.17546150       6.96082495       8.63280086       0.00000000       0.00000000       0.00000000
859
Lattice="22.90502845 0.0 0.0 0.0 22.90502845 0.0 0.0 0.0 22.90502845" Properties=species:S:1:pos:R:3:momenta:R:3 pbc="T T T"
C       19.99091443       7.48617555       2.86350752       0.00000000       0.00000000       0.00000000
C       11.46315026      16.56397962       0.69789535       0.00000000       0.00000000       0.00000000
C       16.99037656       8.75457361       3.95163046       0.00000000       0.00000000       0.00000000
C       15.16672280      12.91510818       4.44274133       0.00000000       0.00000000       0.00000000
C        2.60505458       1.05013721      18.73378403       0.00000000       0.00000000       0.00000000
C        3.57142143      15.14947627       6.24932261       0.00000000       0.00000000       0.00000000
C        9.25308280      10.55652143       1.95930547       0.00000000       0.00000000       0.00000000
C       17.13109193      12.08420951      18.80218997       0.00000000       0.00000000       0.00000000
C       16.05670406      18.19742321       6.00195537       0.00000000       0.00000000       0.00000000
C        2.88403516       5.35524639       0.33030199       0.00000000       0.00000000       0.00000000
C        8.40823238       0.34285021      18.86187655       0.00000000       0.00000000       0.00000000
C       11.36838455       6.41494328       1.51453877       0.00000000       0.00000000       0.00000000
C        3.64576634      16.35692506      19.18692444       0.00000000       0.00000000       0.00000000
C       19.91749163      10.87731157      17.53796898       0.00000000       0.00000000       0.00000000
C        4.73594219      19.29158546      18.51482427       0.00000000       0.00000000       0.00000000
C        8.52453794      15.41469839      22.43995826       0.00000000       0.00000000       0.00000000
C       20.52488270       5.74761909      20.45507737       0.00000000       0.00000000       0.00000000
C        8.36369189       7.62884434       2.52385023       0.00000000       0.00000000       0.00000000
C        8.38938330       3.68486869      20.90537226       0.00000000       0.00000000       0.00000000
C        1.62186842      17.29954424       4.55477848       0.00000000       0.00000000       0.00000000
C       22.70390860      21.80386723       4.85310548       0.00000000       0.00000000       0.00000000
C       10.22477638      11.33893417      21.99111898       0.00000000       0.00000000       0.00000000
C        0.74986176      19.86080189      22.54548249       0.00000000       0.00000000       0.00000000
C       19.89564519       9.65960267       5.12173290       0.00000000       0.00000000       0.00000000
C       11.35483102      14.27093658      21.31701322       0.00000000       0.00000000       0.00000000
C        3.62895801      18.56467707      21.55064873       0.00000000       0.00000000       0.00000000
C        4.59907625      11.31322410      21.91794288       0.00000000       0.00000000       0.00000000
C       17.04828884      22.26537823      17.76757929       0.00000000       0.00000000       0.00000000
C       14.07652689      20.12025695       4.07387790       0.00000000       0.00000000       0.00000000
C       21.62132592      18.31918099       5.90534094       0.00000000       0.00000000       0.00000000
C       16.96633228      10.91550134       6.29912256       0.00000000       0.00000000       0.00000000
C       13.29576412      22.70535788      21.93612015       0.00000000       0.00000000       0.00000000
C       22.58453384      19.52239201       2.63055513       0.00000000       0.00000000       0.00000000
C       14.17232573      13.33580095      20.18300188       0.00000000       0.00000000       0.00000000
C        2.69978168       3.31114767      20.99578656       0.00000000       0.00000000       0.00000000
C        8.44219341      22.34425831       6.13225803       0.00000000       0.00000000       0.00000000
C        3.58555694      12.83335509       4.18189330       0.00000000       0.00000000       0.00000000
C       16.19523186      13.56747496       1.34605098       0.00000000       0.00000000       0.00000000
C        6.80482391       1.34449610       4.26614956       0.00000000       0.00000000       0.00000000
C        1.77180446       6.73596249       5.79221549       0.00000000       0.00000000       0.00000000
C       13.30345419      12.47835097       0.22107473       0.00000000       0.00000000       0.00000000
C        7.54132770      16.82376223       4.77362192       0.00000000       0.00000000       0.00000000
C        3.72928363       8.25033970      22.49143787       0.00000000       0.00000000       0.00000000
C        9.20598859       8.34547810      22.57312080       0.00000000       0.00000000       0.00000000
C       11.48761215       1.25169482      19.97776978       0.00000000       0.00000000       0.00000000
C        6.52442705       5.02994090      19.06038177       0.00000000       0.00000000       0.00000000
C       11.27864275      12.19944927      19.01955435       0.00000000       0.00000000       0.00000000
C       16.04336497       0.97592458       0.26576141       0.00000000       0.00000000       0.00000000
C        4.71776280       1.22174449       0.06991577       0.00000000       0.00000000       0.00000000
C       22.00456558       1.05322743       0.09184330       0.00000000       0.00000000       0.00000000
C       18.75983735      20.38917273      19.51163941       0.00000000       0.00000000       0.00000000
C       12.24232392      17.26574206      20.45352638       0.00000000       0.00000000       0.00000000
C        0.02290726       8.63519843       3.75868847       0.00000000       0.00000000       0.00000000
C        6.56189864       7.39647796      21.24092649       0.00000000       0.00000000       0.00000000
C       15.23856364      20.67735924       0.93249987       0.00000000       0.00000000       0.00000000
C        5.13236982       3.60617958       3.18758578       0.00000000       0.00000000       0.00000000
C        8.22321963      13.03482950      20.05234064       0.00000000       0.00000000       0.00000000
C       20.94293913       0.47241290       3.11056296       0.00000000       0.00000000       0.00000000
C        0.18089761      12.01536067      18.82566266       0.00000000       0.00000000       0.00000000
C        0.84468461       4.90932191      19.21122368       0.00000000       0.00000000       0.00000000
C       11.41485272      21.21239396       5.16976831       0.00000000       0.00000000       0.00000000
C       19.15639047       6.81439221       5.82386787       0.00000000       0.00000000       0.00000000
C        5.46213115      19.12950805       2.75502960       0.00000000       0.00000000       0.00000000
C        4.48861538       5.98066503       4.58566985       0.00000000       0.00000000       0.00000000
C       15.08890253      18.37418571      21.64969251       0.00000000       0.00000000       0.00000000
C       18.28966361      11.70193006       3.24019781       0.00000000       0.00000000       0.00000000
C        7.38090626      12.37008379       0.20488420       0.00000000       0.00000000       0.00000000
C       14.17326432       2.88636831      21.22360866       0.00000000       0.00000000       0.00000000
C        7.31431545       6.77588680       5.72271815       0.00000000       0.00000000       0.00000000
C        5.63530150      12.16877965      18.85945602       0.00000000       0.00000000       0.00000000
C        6.61875962      15.17925668      18.20012402       0.00000000       0.00000000       0.00000000
C       20.85604040      12.98308516       4.31281854       0.00000000       0.00000000       0.00000000
C       10.35504228       3.18280180       2.33234901       0.00000000       0.00000000       0.00000000
C       19.47092735      10.42613181      20.31390509       0.00000000       0.00000000       0.00000000
C       12.19403402       7.32349634      21.53561612       0.00000000       0.00000000       0.00000000
C        3.68571886       2.84175759       5.54957569       0.00000000       0.00000000       0.00000000
C        0.05172649       6.43883092       1.48171989       0.00000000       0.00000000       0.00000000
C        6.43802788      22.02172711       2.04887716       0.00000000       0.00000000       0.00000000
C       16.15133902      15.78771652       3.70882099       0.00000000       0.00000000       0.00000000
C       19.90859577       2.85568121      21.35147526       0.00000000       0.00000000       0.00000000
C       19.76129387      15.58270769      22.14423217       0.00000000       0.00000000       0.00000000
C        9.35317310       6.19301306      20.19093347       0.00000000       0.00000000       0.00000000
C       17.97358235       6.51988867      21.75681640       0.00000000       0.00000000       0.00000000
C       13.36063634      14.67835012       2.75097361       0.00000000       0.00000000       0.00000000
C       13.11075401       8.08828676      18.54930920       0.00000000       0.00000000       0.00000000
C       16.14029207       5.64182297       4.73876153       0.00000000       0.00000000       0.00000000
C       18.10841492      17.44216280      20.15981702       0.00000000       0.00000000       0.00000000
C       19.14744075      12.42317008       0.06647133       0.00000000       0.00000000       0.00000000
C        0.86687320      11.93768831       3.06883401       0.00000000       0.00000000       0.00000000
C       14.99024180       3.61888881      18.37642108       0.00000000       0.00000000       0.00000000
C       18.96647626      22.85307658      21.93610847       0.00000000       0.00000000       0.00000000
C        2.62232749      15.60443219      22.30974560       0.00000000       0.00000000       0.00000000
C        2.85027922       7.68511578       2.62572683       0.00000000       0.00000000       0.00000000
C        2.66858682      20.37588894       3.78166774       0.00000000       0.00000000       0.00000000
C       20.83053970      18.72675916      21.22734945       0.00000000       0.00000000       0.00000000
C        2.00769097      10.15768655      20.79633739       0.00000000       0.00000000       0.00000000
C        7.58755432       8.07270130      18.35253430       0.00000000       0.00000000       0.00000000
C       12.11859161      15.17972756      18.15610366       0.00000000       0.00000000       0.00000000
C       13.25900610      20.44084319      19.70702900       0.00000000       0.00000000       0.00000000
C       14.08832606      22.52850909       6.31934477       0.00000000       0.00000000       0.00000000
C       16.04287446      19.32154874      18.34567730       0.00000000       0.00000000       0.00000000
C        1.09028200       1.81323120       4.32934158       0.00000000       0.00000000       0.00000000
C       19.99850345       0.55551434      19.01662354       0.00000000       0.00000000       0.00000000
C       10.43463031      19.21852028      18.44473361       0.00000000       0.00000000       0.00000000
C       18.41391625      10.02450050      20.86293766       0.00000000       0.00000000       0.00000000
C       13.91999239       5.04073378       0.59549293       0.00000000       0.00000000       0.00000000
C       18.77906869      17.24752113       4.72093709       0.00000000       0.00000000       0.00000000
C       17.12508392      18.97893874       2.84559589       0.00000000       0.00000000       0.00000000
C       12.43720378      13.85970775       5.75155751       0.00000000       0.00000000       0.00000000
C        5.67720314      14.32499333      21.21195103       0.00000000       0.00000000       0.00000000
C        6.30836451       9.41137930       0.84492821       0.00000000       0.00000000       0.00000000
C       22.84722523       1.60740663      20.08219639       0.00000000       0.00000000       0.00000000
C       15.01403161       6.19983058      20.51803702       0.00000000       0.00000000       0.00000000
C       18.24758247       9.53566841       0.95361362       0.00000000       0.00000000       0.00000000
C       16.01661897       3.27467922       2.46418516       0.00000000       0.00000000       0.00000000
C       17.81100767       1.37147443       4.52579418       0.00000000       0.00000000       0.00000000
C        8.39408436      11.07656542      17.56075304       0.00000000       0.00000000       0.00000000
C       17.98303245      19.67956568      22.72931367       0.00000000       0.00000000       0.00000000
C       12.25953859       4.88773688      19.28106721       0.00000000       0.00000000       0.00000000
C       12.31646096      11.65724428       3.15402928       0.00000000       0.00000000       0.00000000
C       14.86491235       8.37576521      22.70906705       0.00000000       0.00000000       0.00000000
C        0.80327527      14.09390050       5.39011828       0.00000000       0.00000000       0.00000000
C        8.59675302      17.70406780       1.78956821       0.00000000       0.00000000       0.00000000
C       20.87344928      16.28998804      19.09259031       0.00000000       0.00000000       0.00000000
C       17.09208393      16.63781697       0.37751647       0.00000000       0.00000000       0.00000000
C       12.92570260      10.21926990      21.09912093       0.00000000       0.00000000       0.00000000
C        2.00520349       4.62002591       3.66619243       0.00000000       0.00000000       0.00000000
C        0.62737969       7.03803577      21.57171868       0.00000000       0.00000000       0.00000000
C        5.62269585      21.37538794       4.83296093       0.00000000       0.00000000       0.00000000
C       21.82532077      13.71948471       1.41568835       0.00000000       0.00000000       0.00000000
C        1.82903216       2.31781835       1.26950326       0.00000000       0.00000000       0.00000000
C       17.97883099      15.03971130      17.83507492       0.00000000       0.00000000       0.00000000
C        2.55684593      18.04961520       1.58197146       0.00000000       0.00000000       0.00000000
C        1.87430276      22.87087507      21.83787941       0.00000000       0.00000000       0.00000000
C       13.14403193       4.38028464       3.59119284       0.00000000       0.00000000       0.00000000
C       13.45688797      16.96685612       4.96567389       0.00000000       0.00000000       0.00000000
C       17.43983923       7.69755289      21.82242568       0.00000000       0.00000000       0.00000000
C        7.54539885      14.69794303       2.65532771       0.00000000       0.00000000       0.00000000
C       14.08021055       9.61352921       5.09190692       0.00000000       0.00000000       0.00000000
C        4.75150002       9.20101070      19.49771314       0.00000000       0.00000000       0.00000000
C       19.92348408       5.17338655       0.81189725       0.00000000       0.00000000       0.00000000
C        2.94249087      13.27359193      20.00752310       0.00000000       0.00000000       0.00000000
C       15.12391112       0.16307204       3.40626075       0.00000000       0.00000000       0.00000000
C       14.50628605      17.68343957       1.83400105       0.00000000       0.00000000       0.00000000
C       10.50388685      18.16938090       6.01163685       0.00000000       0.00000000       0.00000000
C        7.68045115      22.71975265      21.80576760       0.00000000       0.00000000       0.00000000
C        2.84031248       9.92058819       5.05442054       0.00000000       0.00000000       0.00000000
C        7.58668249       2.30444365       1.23672479       0.00000000       0.00000000       0.00000000
C       10.63451928       2.30527744      20.35550796       0.00000000       0.00000000       0.00000000
C       11.30525635       4.33350179      22.21602263       0.00000000       0.00000000       0.00000000
C       16.96566628       3.93087823      22.40350829       0.00000000       0.00000000       0.00000000
C       11.23124494      18.67783605       3.07586930       0.00000000       0.00000000       0.00000000
C       18.93628731       2.17637003       1.36665834       0.00000000       0.00000000       0.00000000
C        4.63111741      13.52597296       1.33765856       0.00000000       0.00000000       0.00000000
C       21.66586888      16.17392051       3.54173977       0.00000000       0.00000000       0.00000000
C       11.31487374      22.25968427      17.69296740       0.00000000       0.00000000       0.00000000
C       13.07050778       6.61207034       5.77128795       0.00000000       0.00000000       0.00000000
C        5.67454679       1.93089839      19.73159268       0.00000000       0.00000000       0.00000000
C        9.54031206      18.37934573      21.58206815       0.00000000       0.00000000       0.00000000
C        0.62972860      17.38086539      20.31292413       0.00000000       0.00000000       0.00000000
C       21.79557960       3.32812516       2.61487293       0.00000000       0.00000000       0.00000000
C        5.87421474      21.72018484      17.72726505       0.00000000       0.00000000       0.00000000
C        9.04441975       2.45310697      20.69217881       0.00000000       0.00000000       0.00000000
C       12.31951447       1.25707167       4.37910413       0.00000000       0.00000000       0.00000000
C       12.44003308      19.62328730      22.87208482       0.00000000       0.00000000       0.00000000
C        5.70584999      10.93444260       6.32530284       0.00000000       0.00000000       0.00000000
C       14.46248460      15.39492150      22.43224616       0.00000000       0.00000000       0.00000000
C        1.85983820       7.83507446      18.36373558       0.00000000       0.00000000       0.00000000
C       22.76263455       3.98140392      22.41169693       0.00000000       0.00000000       0.00000000
C        9.43057121       2.50522095       5.37989108       0.00000000       0.00000000       0.00000000
C       19.77389054      17.99359407       1.72400038       0.00000000       0.00000000       0.00000000
C       10.33601333       9.06982100      19.51608592       0.00000000       0.00000000       0.00000000
C       10.99501475      10.82835897       6.04978878       0.00000000       0.00000000       0.00000000
C       14.26921982      11.37799195      18.32093863       0.00000000       0.00000000       0.00000000
C       14.28089150       0.55210037      18.83553757       0.00000000       0.00000000       0.00000000
C       10.48659958       0.77668984       0.19842378       0.00000000       0.00000000       0.00000000
C        4.57187442      15.96399153       3.47425896       0.00000000       0.00000000       0.00000000
C        0.85739228      15.14537027      18.13305179       0.00000000       0.00000000       0.00000000
C       15.98602805      11.47431054      21.99614949       0.00000000       0.00000000       0.00000000
C        8.17457433       9.77372333       4.99510614       0.00000000       0.00000000       0.00000000
C        9.38743909      12.75722249       4.31675823       0.00000000       0.00000000       0.00000000
C        6.49552229      19.63771595      22.56799052       0.00000000       0.00000000       0.00000000
C        5.06892379       4.77361594       4.29082024       0.00000000       0.00000000       0.00000000
C        8.40824609      20.14950250       3.94767839       0.00000000       0.00000000       0.00000000
C       20.96010702      21.02637900       0.74003399       0.00000000       0.00000000       0.00000000
C       11.12913564       8.53199011       3.84569719       0.00000000       0.00000000       0.00000000
C        1.01743619      22.25599962       1.90333401       0.00000000       0.00000000       0.00000000
C       16.99616253       6.22023266       1.72128491       0.00000000       0.00000000       0.00000000
C       17.96686520      21.90492601       2.09385741       0.00000000       0.00000000       0.00000000
C       16.00967649       6.57772639      17.64271979       0.00000000       0.00000000       0.00000000
C       22.61356448      14.64191870      21.11233313       0.00000000       0.00000000       0.00000000
C       17.13994732       1.64529223      20.24412215       0.00000000       0.00000000       0.00000000
C        3.62481600      10.50523864       1.88954122       0.00000000       0.00000000       0.00000000
C       17.11187493      14.39517339      20.98254790       0.00000000       0.00000000       0.00000000
C       15.11240684      10.47107361       2.06168101       0.00000000       0.00000000       0.00000000
C        7.84611311       4.57734480       3.18515191       0.00000000       0.00000000       0.00000000
C       22.80168968      10.89083299       6.08877196       0.00000000       0.00000000       0.00000000
C        5.60643506       4.28759946      22.05398171       0.00000000       0.00000000       0.00000000
C       10.11236563      13.50810900       1.36040410       0.00000000       0.00000000       0.00000000
C       17.03477977      21.39203177       5.29984777       0.00000000       0.00000000       0.00000000
C        9.48363431       0.16408713       3.03127744       0.00000000       0.00000000       0.00000000
C        1.80161971      20.35869702      19.59572649       0.00000000       0.00000000       0.00000000
C       21.90277476      11.29413315      21.79514142       0.00000000       0.00000000       0.00000000
C       21.92321823      21.65195349      20.63222744       0.00000000       0.00000000       0.00000000
C        7.51579052      10.22641749      20.76306126       0.00000000       0.00000000       0.00000000
C        5.64684261       6.44236862       1.46961854       0.00000000       0.00000000       0.00000000
C       20.08541577      13.21700184      19.82869514       0.00000000       0.00000000       0.00000000
C        9.53775364      20.80712870       0.86123923       0.00000000       0.00000000       0.00000000
C       18.77607339      14.78791328       2.37404300       0.00000000       0.00000000       0.00000000
C       16.17959289      21.57909123      20.94836861       0.00000000       0.00000000       0.00000000
C        1.43239385      15.09641147       2.47502926       0.00000000       0.00000000       0.00000000
C        6.79099147      13.94424862       5.50682136       0.00000000       0.00000000       0.00000000
C       17.68101442       4.63964059      19.48348791       0.00000000       0.00000000       0.00000000
C        4.56022365      21.45849711      20.64596682       0.00000000       0.00000000       0.00000000
C       15.75112930       9.38644379      19.63208215       0.00000000       0.00000000       0.00000000
C       10.18353970       5.54843141       4.58605440       0.00000000       0.00000000       0.00000000
C       20.66275406       2.78423831       5.51153710       0.00000000       0.00000000       0.00000000
C        3.75067226       0.44381878       3.08287187       0.00000000       0.00000000       0.00000000
C        5.76614336      16.66842161       0.63724069       0.00000000       0.00000000       0.00000000
C       20.87463945       8.10927952      22.65744336       0.00000000       0.00000000       0.00000000
C       12.39711402      21.92446643       2.20185346       0.00000000       0.00000000       0.00000000
C        1.72939525      12.47401091       0.10044767       0.00000000       0.00000000       0.00000000
C        0.74841145       9.46588974       0.68710696       0.00000000       0.00000000       0.00000000
C        0.00371220      22.38511634      17.72892343       0.00000000       0.00000000       0.00000000
C        5.30215028      22.89210313      17.63299274       0.00000000       0.00000000       0.00000000
C        3.51715217      20.91146250       0.82235218       0.00000000       0.00000000       0.00000000
C       10.41398721      15.76571926       3.64615641       0.00000000       0.00000000       0.00000000
C        9.37299497      16.14350664      19.30677195       0.00000000       0.00000000       0.00000000
C       21.72579755      19.21605118      18.41121993       0.00000000       0.00000000       0.00000000
C        5.46666967       8.72949081       3.75665585       0.00000000       0.00000000       0.00000000
C       17.97941636      14.13389810       5.64162326       0.00000000       0.00000000       0.00000000
C       20.88848056       3.35346998      18.01063833       0.00000000       0.00000000       0.00000000
C       15.16792629       2.46299429       5.65918741       0.00000000       0.00000000       0.00000000
C       12.10704343       9.55072973       1.03912694       0.00000000       0.00000000       0.00000000
C        3.79421224       6.00652084      20.30225607       0.00000000       0.00000000       0.00000000
C        2.59900075       0.02401082       6.17089648       0.00000000       0.00000000       0.00000000
C        3.87964969       4.04395665      17.93330796       0.00000000       0.00000000       0.00000000
C        6.54324661      17.35970330      20.38643063       0.00000000       0.00000000       0.00000000
C        7.66880423      20.34426719      19.63701825       0.00000000       0.00000000       0.00000000
C        9.46052653       3.83494477      17.99026073       0.00000000       0.00000000       0.00000000
C       13.27320582       1.96736232       1.24938376       0.00000000       0.00000000       0.00000000
C       19.88849772      20.23593228       4.16093873       0.00000000       0.00000000       0.00000000
C       21.85048048       5.77111984       4.49963044       0.00000000       0.00000000       0.00000000
C        8.39289618       5.36430351       0.19186889       0.00000000       0.00000000       0.00000000
C        6.44972473      11.77433815       3.05666009       0.00000000       0.00000000       0.00000000
C        4.71213916      18.04578826       5.54067918       0.00000000       0.00000000       0.00000000
C       21.79567886       8.92105769      19.61010476       0.00000000       0.00000000       0.00000000
C        4.55439873       3.54785639       1.99353171       0.00000000       0.00000000       0.00000000
C       18.44092863       7.74435304      18.56518885       0.00000000       0.00000000       0.00000000
C       18.67618459       4.44257689       3.81272473       0.00000000       0.00000000       0.00000000
C       22.59584591      16.84725466       0.44396195       0.00000000       0.00000000       0.00000000
C       14.11554076       7.54057707       2.75305280       0.00000000       0.00000000       0.00000000
C       15.18988399      16.29891382      19.27850485       0.00000000       0.00000000       0.00000000
C       21.04177190      10.80452134       1.93932558       0.00000000       0.00000000       0.00000000
C       10.46270582      21.36429736      20.71915148       0.00000000       0.00000000       0.00000000
C        2.95863696      11.00243206      17.68785432       0.00000000       0.00000000       0.00000000
Hf      12.16158643       6.48405882       3.63732390       0.00000000       0.00000000       0.00000000
Hf      18.95911169      15.27639280      19.81005664       0.00000000       0.00000000       0.00000000
Hf       6.37227691       8.79145506       6.19687489       0.00000000       0.00000000       0.00000000
Hf      17.94563142       6.73469245       3.75167632       0.00000000       0.00000000       0.00000000
Hf       1.08796791       6.66969323       3.61924237       0.00000000       0.00000000       0.00000000
Hf       3.71317816      13.43223605      22.16323835       0.00000000       0.00000000       0.00000000
Hf       9.43647549       2.69554457       0.33756773       0.00000000       0.00000000       0.00000000
Hf       2.46974762      13.06539831       2.05668057       0.00000000       0.00000000       0.00000000
Hf       3.39960344       1.27429978      20.97040391       0.00000000       0.00000000       0.00000000
Hf       6.64265256       6.79165487       3.57086563       0.00000000       0.00000000       0.00000000
Hf      11.30558075       3.25215764       4.60311742       0.00000000       0.00000000       0.00000000
Hf      11.46428464      19.29335555      21.03989522       0.00000000       0.00000000       0.00000000
Hf      17.72021671       9.92717301      18.50831061       0.00000000       0.00000000       0.00000000
Hf      19.63909904      22.81746910       1.16432368       0.00000000       0.00000000       0.00000000
Hf       9.48199302       5.57408051       2.14334632       0.00000000       0.00000000       0.00000000
Hf       4.01850258      20.05603276       5.48141823       0.00000000       0.00000000       0.00000000
Hf      14.97408671       5.35745613       2.54254692       0.00000000       0.00000000       0.00000000
Hf      10.47136944      16.24150142      21.34837788       0.00000000       0.00000000       0.00000000
Hf      12.67377900      16.77915878       2.84874364       0.00000000       0.00000000       0.00000000
Hf      21.58741975       0.83263483       5.70734420       0.00000000       0.00000000       0.00000000
Hf       5.62391152       7.24138360      19.24864755       0.00000000       0.00000000       0.00000000
Hf      14.07846372       4.67014556       5.64382130       0.00000000       0.00000000       0.00000000
Hf      20.66607001       8.81563095      17.55834230       0.00000000       0.00000000       0.00000000
Hf      20.42848670      20.94656401      18.35335202       0.00000000       0.00000000       0.00000000
Hf      15.80261532      10.70283163       4.15904967       0.00000000       0.00000000       0.00000000
Hf      15.24087478      18.29122681       3.94446821       0.00000000       0.00000000       0.00000000
Hf       0.61185145      19.87139178       4.55730797       0.00000000       0.00000000       0.00000000
Hf       1.27408253       9.83793322      18.71949125       0.00000000       0.00000000       0.00000000
Hf      16.97930523       1.12898970       2.50186838       0.00000000       0.00000000       0.00000000
Hf      10.44939256      18.66194717       0.84506601       0.00000000       0.00000000       0.00000000
Hf       3.70586295      16.10023506       1.31107194       0.00000000       0.00000000       0.00000000
Hf      12.26251741       1.74317996      22.11694065       0.00000000       0.00000000       0.00000000
Hf      12.10354292      22.15429973      19.71071964       0.00000000       0.00000000       0.00000000
Hf       0.53754498      14.84411749       0.38954319       0.00000000       0.00000000       0.00000000
Hf      12.15086182      10.17863202      18.99177506       0.00000000       0.00000000       0.00000000
Hf      11.61313545      16.00012153       5.71580752       0.00000000       0.00000000       0.00000000
Hf       5.54179864      17.25111082      18.27797987       0.00000000       0.00000000       0.00000000
Hf      18.36554696      12.44995520      20.74939400       0.00000000       0.00000000       0.00000000
Hf      13.10887742       9.42867600       3.04917732       0.00000000       0.00000000       0.00000000
Hf      18.90304240      17.74686605      22.21078924       0.00000000       0.00000000       0.00000000
Hf       7.55365010      20.03143265       1.72623599       0.00000000       0.00000000       0.00000000
Hf      22.06354030       8.33075195       1.83741623       0.00000000       0.00000000       0.00000000
Hf       0.87600068      22.47504038      19.93671759       0.00000000       0.00000000       0.00000000
Hf      16.24751116       8.63470791       1.73814128       0.00000000       0.00000000       0.00000000
Hf      15.79920318       5.89481637      22.60041895       0.00000000       0.00000000       0.00000000
Hf       7.56468867      17.52759988      22.44985936       0.00000000       0.00000000       0.00000000
Hf      17.98411068      19.35915552       5.25535101       0.00000000       0.00000000       0.00000000
Hf       9.99615246      10.59947349       4.11498301       0.00000000       0.00000000       0.00000000
Hf       4.56456689       4.01207845      20.08690730       0.00000000       0.00000000       0.00000000
Hf      15.26671262      21.28180598      18.81393134       0.00000000       0.00000000       0.00000000
Hf      19.99126042      10.25776639      22.65854441       0.00000000       0.00000000       0.00000000
Hf       0.39323106      17.21350961       2.56548326       0.00000000       0.00000000       0.00000000
Hf       4.80680373      16.59301672      21.43602796       0.00000000       0.00000000       0.00000000
Hf      10.46535144      20.89458772       2.95855279       0.00000000       0.00000000       0.00000000
Hf      11.58036422      13.58917355       3.79844394       0.00000000       0.00000000       0.00000000
Hf      22.84732204       7.03677540      19.41369288       0.00000000       0.00000000       0.00000000
Hf       6.67573540       4.30449772       1.35733879       0.00000000       0.00000000       0.00000000
Hf      14.38254645      20.53846588      21.80894214       0.00000000       0.00000000       0.00000000
Hf      20.75464376       3.20782633       0.70865413       0.00000000       0.00000000       0.00000000
Hf      20.42276842       5.09568061       2.98881657       0.00000000       0.00000000       0.00000000
Hf      17.62339047      11.55675442       1.31090963       0.00000000       0.00000000       0.00000000
Nb       5.48301659      19.45488350      20.67799498       0.00000000       0.00000000       0.00000000
Nb       4.00136033      11.16426759      19.82352127       0.00000000       0.00000000       0.00000000
Nb       2.99422716       2.48512296       3.54925283       0.00000000       0.00000000       0.00000000
Nb      16.95499240       3.60623976       4.60614518       0.00000000       0.00000000       0.00000000
Nb      19.22385630       5.69829986      18.61108176       0.00000000       0.00000000       0.00000000
Nb      15.16367759       2.96231692       0.47246271       0.00000000       0.00000000       0.00000000
Nb       0.87820413       2.11159002      21.89245493       0.00000000       0.00000000       0.00000000
Nb      15.27687004       7.81191308       4.61020202       0.00000000       0.00000000       0.00000000
Nb      19.06908646       7.19237358       0.87637203       0.00000000       0.00000000       0.00000000
Nb      19.06121583       4.80080400      21.81228248       0.00000000       0.00000000       0.00000000
Nb      22.76365821       9.07007860      21.59101329       0.00000000       0.00000000       0.00000000
Nb      16.59052127       9.62457132      21.57574742       0.00000000       0.00000000       0.00000000
Nb      16.17344543      14.16522254      18.87473115       0.00000000       0.00000000       0.00000000
Nb      21.64448108      16.53297939      21.07566904       0.00000000       0.00000000       0.00000000
Nb       1.58340221      20.10258899       1.53504533       0.00000000       0.00000000       0.00000000
Nb       7.58393384      22.12515289       3.92783995       0.00000000       0.00000000       0.00000000
Nb      12.26607568       3.99865320       1.17281829       0.00000000       0.00000000       0.00000000
Nb      13.43832598      19.91255855       1.92658784       0.00000000       0.00000000       0.00000000
Nb       6.67004511      18.99306736       4.60987947       0.00000000       0.00000000       0.00000000
Nb       4.73795272      18.78408064       0.47721727       0.00000000       0.00000000       0.00000000
Nb      22.47071402      16.22627993       5.40538737       0.00000000       0.00000000       0.00000000
Nb       9.55389388      17.76238828       3.98065237       0.00000000       0.00000000       0.00000000
Nb       3.80888538       3.26920498       0.20482966       0.00000000       0.00000000       0.00000000
Nb      18.11393686       8.63801780       6.22411780       0.00000000       0.00000000       0.00000000
Nb      22.60049980      19.52438840      20.35149921       0.00000000       0.00000000       0.00000000
Nb       8.38743303       6.05406846      18.12038349       0.00000000       0.00000000       0.00000000
Nb      17.89220980      16.85934355       2.51411113       0.00000000       0.00000000       0.00000000
Nb       9.42791195      20.19804993       5.99579097       0.00000000       0.00000000       0.00000000
Nb      19.26183398      12.98787973      17.71650890       0.00000000       0.00000000       0.00000000
Nb      20.62958293      18.28977463       3.91709597       0.00000000       0.00000000       0.00000000
Nb       8.63784557      14.81929363       4.38473205       0.00000000       0.00000000       0.00000000
Nb       1.67167897      15.50365904      20.35492182       0.00000000       0.00000000       0.00000000
Nb      17.83565212       4.24932130       1.60976682       0.00000000       0.00000000       0.00000000
Nb      22.82869987      22.06406272      22.54649941       0.00000000       0.00000000       0.00000000
Nb      14.10978090      10.43513265       0.25796734       0.00000000       0.00000000       0.00000000
Nb       3.76356284      21.31594251      18.71861104       0.00000000       0.00000000       0.00000000
Nb      18.87237730      19.81376998       1.98695108       0.00000000       0.00000000       0.00000000
Nb       4.75931019      13.16963116       6.35965003       0.00000000       0.00000000       0.00000000
Nb      19.63245673       4.59508367       5.90976700       0.00000000       0.00000000       0.00000000
Nb      21.62132610       5.91004262      22.45958295       0.00000000       0.00000000       0.00000000
Nb      10.43220225       0.26875332       5.15671787       0.00000000       0.00000000       0.00000000
Nb      12.03138205       8.50395358       5.79862249       0.00000000       0.00000000       0.00000000
Nb      13.16427346      22.07521370       4.24188936       0.00000000       0.00000000       0.00000000
Nb       8.43393762       8.11702404      20.36475797       0.00000000       0.00000000       0.00000000
Nb       5.40938223       9.15958439      21.55973911       0.00000000       0.00000000       0.00000000
Nb      11.51297197       0.96273412       2.38692415       0.00000000       0.00000000       0.00000000
Nb      19.54596230       2.47352091       3.53224413       0.00000000       0.00000000       0.00000000
Nb       3.49629398      18.22284799       3.50308994       0.00000000       0.00000000       0.00000000
Nb       5.34874641      11.46760857       0.93462080       0.00000000       0.00000000       0.00000000
Nb       7.20003458       5.36767904      20.96575638       0.00000000       0.00000000       0.00000000
Nb      20.11405492      20.99024602      21.57094150       0.00000000       0.00000000       0.00000000
Nb      13.10044755       7.38044329       0.83050466       0.00000000       0.00000000       0.00000000
Ta       2.61100012      15.45433236       4.20243572       0.00000000       0.00000000       0.00000000
Ta      16.56260111       1.21905501      18.25633949       0.00000000       0.00000000       0.00000000
Ta       9.57464693      15.67336142       1.56897348       0.00000000       0.00000000       0.00000000
Ta      20.81546336       0.81741072      20.90544821       0.00000000       0.00000000       0.00000000
Ta      20.79786488      20.57114067       6.06684232       0.00000000       0.00000000       0.00000000
Ta       9.46378924      21.10578128      18.56694026       0.00000000       0.00000000       0.00000000
Ta      13.61822851      17.21946772      22.78878794       0.00000000       0.00000000       0.00000000
Ta      12.04579615      12.38126953      21.20393230       0.00000000       0.00000000       0.00000000
Ta      22.66758713      13.87425958       3.51528265       0.00000000       0.00000000       0.00000000
Ta      13.12552511      13.21336415      18.26377177       0.00000000       0.00000000       0.00000000
Ta       4.41990840      21.42116564       2.81162391       0.00000000       0.00000000       0.00000000
Ta      17.03994109      16.09469172       5.47778640       0.00000000       0.00000000       0.00000000
Ta      19.68750074      18.25910589      18.98681172       0.00000000       0.00000000       0.00000000
Ta      10.21575456       8.54928966       1.73200564       0.00000000       0.00000000       0.00000000
Ta       7.54135159      13.22745038      17.94194624       0.00000000       0.00000000       0.00000000
Ta       8.31628603      12.53279124       2.20630190       0.00000000       0.00000000       0.00000000
Ta      16.98456333      21.54423842       0.20023646       0.00000000       0.00000000       0.00000000
Ta       7.76499651      12.10313931       5.61430738       0.00000000       0.00000000       0.00000000
Ta      18.13804203       1.98710401      22.19032697       0.00000000       0.00000000       0.00000000
Ta       8.22156215       4.79833989       5.16645277       0.00000000       0.00000000       0.00000000
Ta      18.18075094      22.29790730      20.09964807       0.00000000       0.00000000       0.00000000
Ta       7.38299604       7.42977620       0.39387465       0.00000000       0.00000000       0.00000000
Ta       2.99183983       6.07378178      17.85826477       0.00000000       0.00000000       0.00000000
Ta       4.71088581       1.96206695      17.76065891       0.00000000       0.00000000       0.00000000
Ta      11.68545922      21.68108455       0.20928913       0.00000000       0.00000000       0.00000000
Ta      10.98448143      11.57376665       1.01174239       0.00000000       0.00000000       0.00000000
Ta      14.75062860       9.30907403      17.75852088       0.00000000       0.00000000       0.00000000
Ta       2.16690085       3.26754030      18.80816667       0.00000000       0.00000000       0.00000000
Ta      14.95110481       0.78022924      20.88923446       0.00000000       0.00000000       0.00000000
Ta       7.73469149       1.43112904       6.15056217       0.00000000       0.00000000       0.00000000
Ta      20.14087585      12.66999745       2.40166326       0.00000000       0.00000000       0.00000000
Ta      17.93265074      14.69405592       0.07902599       0.00000000       0.00000000       0.00000000
Ta       8.09266907      10.10482856      22.87141196       0.00000000       0.00000000       0.00000000
Ta      19.52083615       9.75275898       3.15653401       0.00000000       0.00000000       0.00000000
Ta       1.27243455      17.89032060      22.39625247       0.00000000       0.00000000       0.00000000
Ta       2.44300273      18.22701500      19.51540763       0.00000000       0.00000000       0.00000000
Ta       7.53356662      15.05748705      20.28017366       0.00000000       0.00000000       0.00000000
Ta      14.25108916      12.78402296       2.19843641       0.00000000       0.00000000       0.00000000
Ta       3.62495805       7.92657308       4.59636638       0.00000000       0.00000000       0.00000000
Ta      22.02488216       1.45495547      18.00761107       0.00000000       0.00000000       0.00000000
Ta       4.68807972      14.30178519      19.02921146       0.00000000       0.00000000       0.00000000
Ta      13.98490690       8.22598933      20.66604799       0.00000000       0.00000000       0.00000000
Ta      22.16703858      21.67281267       2.40544308       0.00000000       0.00000000       0.00000000
Ta       5.26843678      13.51288285       3.26606230       0.00000000       0.00000000       0.00000000
Ta      11.40273018      17.26036280      18.33310340       0.00000000       0.00000000       0.00000000
Ta       0.90193911      11.77238348      21.21662755       0.00000000       0.00000000       0.00000000
Ta      14.43930566      14.91364281       4.73214058       0.00000000       0.00000000       0.00000000
Ta      13.13911582       2.99327737      19.04264082       0.00000000       0.00000000       0.00000000
Ta       7.27827373       9.62201112       2.95155847       0.00000000       0.00000000       0.00000000
Ta      16.18460702       3.55767653      20.33978536       0.00000000       0.00000000       0.00000000
Ta       6.65928449      10.02844413      18.35856572       0.00000000       0.00000000       0.00000000
Ta      22.59105776       5.98137126       6.38766246       0.00000000       0.00000000       0.00000000
Ta      16.22845456      16.32322467      21.17196823       0.00000000       0.00000000       0.00000000
Ta       0.07948029       1.50466877       2.20184736       0.00000000       0.00000000       0.00000000
Ta      14.29177124      22.89099111       1.34471747       0.00000000       0.00000000       0.00000000
Ta       9.43488882       0.33912440      20.83407584       0.00000000       0.00000000       0.00000000
Ta       2.70169932      20.46946459      21.72292758       0.00000000       0.00000000       0.00000000
Ta       1.53686970       4.91707449      21.42204992       0.00000000       0.00000000       0.00000000
Ta      11.28024461       9.21988273      21.98465781       0.00000000       0.00000000       0.00000000
Ta      11.40000381       6.92268509      19.12855659       0.00000000       0.00000000       0.00000000
Ta       6.41380864      12.13864021      21.19513258       0.00000000       0.00000000       0.00000000
Ti       1.74012604      22.80966408       4.01476058       0.00000000       0.00000000       0.00000000
Ti      16.06719400       0.39271061       5.42950916       0.00000000       0.00000000       0.00000000
Ti      16.70269157       6.84375369      19.71220429       0.00000000       0.00000000       0.00000000
Ti       2.63012888       4.87723324       5.61376838       0.00000000       0.00000000       0.00000000
Ti       0.60372745      18.98296092       5.35544887       0.00000000       0.00000000       0.00000000
Ti       4.74569336       6.22094576      22.35335793       0.00000000       0.00000000       0.00000000
Ti      21.20855124      21.76043229      18.76201988       0.00000000       0.00000000       0.00000000
Ti       6.53772947      16.79752069       2.74401637       0.00000000       0.00000000       0.00000000
Ti       8.65362874      22.78438246       0.86310493       0.00000000       0.00000000       0.00000000
Ti       9.51305942       3.61739764      22.47882709       0.00000000       0.00000000       0.00000000
Ti      15.55083776      15.56882511       1.69834088       0.00000000       0.00000000       0.00000000
Ti       5.72029703       3.05437736       4.97785556       0.00000000       0.00000000       0.00000000
Ti      22.85074381      11.62679219       1.16478049       0.00000000       0.00000000       0.00000000
Ti       5.80366099      15.82622644       5.57936968       0.00000000       0.00000000       0.00000000
Ti       2.07706788      11.86623290       5.28235502       0.00000000       0.00000000       0.00000000
Ti      21.91462736       6.45415475      18.90605513       0.00000000       0.00000000       0.00000000
Ti      10.25995704       4.31590499      19.92572002       0.00000000       0.00000000       0.00000000
Ti      20.99618605      13.38834859      21.89024882       0.00000000       0.00000000       0.00000000
Ti      17.09891958      13.83785372       3.44337613       0.00000000       0.00000000       0.00000000
Ti       9.41854407      11.22827334      19.93745130       0.00000000       0.00000000       0.00000000
Ti      21.78353233      14.29458099      19.04018890       0.00000000       0.00000000       0.00000000
Ti       8.98850142      13.19766553      22.15962178       0.00000000       0.00000000       0.00000000
Ti       8.69305484       2.49440078       3.12447864       0.00000000       0.00000000       0.00000000
Ti       2.93052043      10.34576942       0.01987729       0.00000000       0.00000000       0.00000000
Ti      22.22323823       1.07423635       4.73622969       0.00000000       0.00000000       0.00000000
Ti       4.65729932       8.32285941       1.50016228       0.00000000       0.00000000       0.00000000
Ti      20.93279269       7.66716123       4.79034765       0.00000000       0.00000000       0.00000000
Ti      15.32634770      11.76812305      19.86601454       0.00000000       0.00000000       0.00000000
Ti       9.16219645       7.63752052       4.76944598       0.00000000       0.00000000       0.00000000
Ti      16.25813168      18.64113315       0.58238258       0.00000000       0.00000000       0.00000000
Ti       3.90528593       5.56852043       2.42183339       0.00000000       0.00000000       0.00000000
Ti      15.29027036      13.57270440      22.25949465       0.00000000       0.00000000       0.00000000
Ti       6.55516011      22.24123131      19.77185847       0.00000000       0.00000000       0.00000000
Ti       6.77047036      20.00230657      17.75198556       0.00000000       0.00000000       0.00000000
Ti       4.01220670       0.56000478      20.26381495       0.00000000       0.00000000       0.00000000
Ti      10.04040295       6.35136729      22.25225506       0.00000000       0.00000000       0.00000000
Zr       0.08744858       3.79684027       4.60229747       0.00000000       0.00000000       0.00000000
Zr       0.89105053      12.91190747      20.74276196       0.00000000       0.00000000       0.00000000
Zr      13.17667537      11.62799071       5.50474530       0.00000000       0.00000000       0.00000000
Zr      13.18616374       5.27016847      21.40079538       0.00000000       0.00000000       0.00000000
Zr       5.67968807       1.50161048       2.20130063       0.00000000       0.00000000       0.00000000
Zr      13.92324361      18.41874786      19.45394170       0.00000000       0.00000000       0.00000000
Zr       0.98743844       4.47542346       1.53382038       0.00000000       0.00000000       0.00000000
Zr      19.96479909      15.20262620       4.66338607       0.00000000       0.00000000       0.00000000
Zr       1.08948835       8.96517482       5.94692220       0.00000000       0.00000000       0.00000000
Zr      12.26347755      14.32460029       0.69084518       0.00000000       0.00000000       0.00000000
Zr      14.06600347       2.35909942       3.46669689       0.00000000       0.00000000       0.00000000
Zr      21.80297064      18.95995371       0.42942153       0.00000000       0.00000000       0.00000000
Zr       2.80481905       8.06744985      20.55146525       0.00000000       0.00000000       0.00000000
Zr       6.59805174      14.39232170       0.66639885       0.00000000       0.00000000       0.00000000
Zr      13.31971080      15.24797278      20.42706568       0.00000000       0.00000000       0.00000000
Zr      15.07171918      20.42266759       6.18164222       0.00000000       0.00000000       0.00000000
Zr      18.94307168      11.99545943       5.35606112       0.00000000       0.00000000       0.00000000
Zr       7.64134890       2.87380570      18.98627193       0.00000000       0.00000000       0.00000000
Zr      16.89758649      17.29786595      17.96225983       0.00000000       0.00000000       0.00000000
Zr      15.84141552      20.97750959       3.26598462       0.00000000       0.00000000       0.00000000
Zr       4.62562644      10.84982718       4.31350762       0.00000000       0.00000000       0.00000000
Zr      12.43146350      19.14836149       5.32176590       0.00000000       0.00000000       0.00000000
Zr       8.48022336      18.15085752      19.47070205       0.00000000       0.00000000       0.00000000
Zr      18.95877513      22.21622227       4.42579646       0.00000000       0.00000000       0.00000000
Zr      21.93218874      10.57739355       4.24126211       0.00000000       0.00000000       0.00000000
Zr       2.64554009       0.19552417       1.03102187       0.00000000       0.00000000       0.00000000
Zr      20.50082822      15.93321626       1.45143180       0.00000000       0.00000000       0.00000000
Zr       5.44260754      21.81448137      22.65071182       0.00000000       0.00000000       0.00000000
Zr       4.54150882       0.63049714       5.26166385       0.00000000       0.00000000       0.00000000
Zr      14.11543901       5.82311816      18.40562035       0.00000000       0.00000000       0.00000000
Zr      21.74165880      12.87472491       6.38055768       0.00000000       0.00000000       0.00000000
Zr       2.18077003      13.09444415      17.80008066       0.00000000       0.00000000       0.00000000
Zr      22.57718760      17.12416657      17.94230041       0.00000000       0.00000000       0.00000000
Zr      21.85450102       3.60090512      20.40339464       0.00000000       0.00000000       0.00000000
Zr      10.42935330       1.62985329      17.86198668       0.00000000       0.00000000       0.00000000
Zr      21.15065295      10.92317689      19.44149219       0.00000000       0.00000000       0.00000000
Zr       1.97195923       7.47633882       0.33065744       0.00000000       0.00000000       0.00000000
Zr      19.59878579       7.95878419      20.47996622       0.00000000       0.00000000       0.00000000
Zr       8.62116973      20.64702970      21.59397910       0.00000000       0.00000000       0.00000000
Zr       6.72521109       2.27440798      21.88066705       0.00000000       0.00000000       0.00000000
Zr      16.85049020      19.19884419      20.56034210       0.00000000       0.00000000       0.00000000
Zr      19.05789739       2.42405879      19.07973687       0.00000000       0.00000000       0.00000000
Zr       9.99565217      14.01473939      19.25843602       0.00000000       0.00000000       0.00000000
Zr       1.65137890       9.82237918       2.75793425       0.00000000       0.00000000       0.00000000
C        6.28979569       3.86853785       7.82892956       0.00000000       0.00000000       0.00000000
C        3.31319678       5.77681332      12.60529159       0.00000000       0.00000000       0.00000000
C       11.18040278       1.01249403      14.91072296       0.00000000       0.00000000       0.00000000
C        9.37557723       6.27509143       6.67816665       0.00000000       0.00000000       0.00000000
C        7.52260335       6.85696755      11.66210976       0.00000000       0.00000000       0.00000000
C       13.46926359       4.60866067       9.61455125       0.00000000       0.00000000       0.00000000
C       13.01521457       7.13958688      11.26186476       0.00000000       0.00000000       0.00000000
C        5.00406412       5.00230920      15.21049226       0.00000000       0.00000000       0.00000000
C       12.66396098       7.52257228      15.96724887       0.00000000       0.00000000       0.00000000
C       12.81595455       4.99614343      15.97095914       0.00000000       0.00000000       0.00000000
C        6.53339477       5.45578387      17.19917935       0.00000000       0.00000000       0.00000000
C        0.55564889       1.14441719      11.57181655       0.00000000       0.00000000       0.00000000
C       12.82317365       7.80230470       8.63604893       0.00000000       0.00000000       0.00000000
C        8.27663047       0.85844435      15.91404649       0.00000000       0.00000000       0.00000000
C        7.32712231       0.02349761       6.69524825       0.00000000       0.00000000       0.00000000
C        8.54938242       3.84268845      15.30056810       0.00000000       0.00000000       0.00000000
C        1.42055702       2.97724668       8.04715842       0.00000000       0.00000000       0.00000000
C        0.18997225       5.53364249      11.08217775       0.00000000       0.00000000       0.00000000
C        8.44299663       0.49321685       9.46060941       0.00000000       0.00000000       0.00000000
C        8.82628264       4.42371429      13.93915483       0.00000000       0.00000000       0.00000000
C       13.40224427       1.98068422       8.81238056       0.00000000       0.00000000       0.00000000
C       10.31727434       3.00274601       6.57211218       0.00000000       0.00000000       0.00000000
C       11.00465899       0.11953569       7.42461028       0.00000000       0.00000000       0.00000000
C        5.03760938       0.28790954       8.88384852       0.00000000       0.00000000       0.00000000
C        4.65326241       3.86712517       9.72239364       0.00000000       0.00000000       0.00000000
C        0.56514879       5.50324415       6.52042913       0.00000000       0.00000000       0.00000000
C        2.61162424       3.13576184      15.50476333       0.00000000       0.00000000       0.00000000
C        1.26369250       2.33112698      15.17890397       0.00000000       0.00000000       0.00000000
C        5.24264467       5.61651059      13.30308843       0.00000000       0.00000000       0.00000000
C        7.76621786       0.84727040      14.44681435       0.00000000       0.00000000       0.00000000
C        0.76356253       0.16144450      12.61820093       0.00000000       0.00000000       0.00000000
C       12.31823159       1.32235147       9.60974248       0.00000000       0.00000000       0.00000000
C        0.62851948       2.14555962      10.61533947       0.00000000       0.00000000       0.00000000
C        5.40109635       0.62717092      12.64874645       0.00000000       0.00000000       0.00000000
C        1.81765874       6.63078797       8.96204572       0.00000000       0.00000000       0.00000000
C        3.93099843       0.12527911      13.42952086       0.00000000       0.00000000       0.00000000
C        5.60731184       0.58735511      15.79433294       0.00000000       0.00000000       0.00000000
C       11.88891862       4.78865295      16.94869082       0.00000000       0.00000000       0.00000000
C        9.98289401       4.74739709      11.23513286       0.00000000       0.00000000       0.00000000
C        5.12499998       4.66813000       8.39008451       0.00000000       0.00000000       0.00000000
C        5.72850437       2.21165955      15.84098443       0.00000000       0.00000000       0.00000000
C        2.63428497       7.78009343      15.08074250       0.00000000       0.00000000       0.00000000
Hf       1.82136655       6.67435283      13.47441720       0.00000000       0.00000000       0.00000000
Hf       9.26094165       7.06118857      11.20566522       0.00000000       0.00000000       0.00000000
Hf       2.14726047       4.60086250      10.86360387       0.00000000       0.00000000       0.00000000
Hf       7.34156041       7.38757127      17.18317593       0.00000000       0.00000000       0.00000000
Hf       6.46310928       3.46464983      14.47168411       0.00000000       0.00000000       0.00000000
Hf       4.61740206       2.11860643      11.10515925       0.00000000       0.00000000       0.00000000
Hf       2.48786746       1.29155796       7.11008212       0.00000000       0.00000000       0.00000000
Hf       8.82753258       0.91348807      11.73756239       0.00000000       0.00000000       0.00000000
Nb       0.75857510       7.76448853      16.38367319       0.00000000       0.00000000       0.00000000
Nb       8.97828685       4.64374122      17.12305519       0.00000000       0.00000000       0.00000000
Nb       7.30033421       2.33665261      17.15549412       0.00000000       0.00000000       0.00000000
Nb       3.69162393       3.52334278       7.74576834       0.00000000       0.00000000       0.00000000
Ta       8.74632252       4.41258432       6.72777953       0.00000000       0.00000000       0.00000000
Ta       3.35816867       4.16468243      13.51387172       0.00000000       0.00000000       0.00000000
Ta       6.08401851       5.07576193      11.45236632       0.00000000       0.00000000       0.00000000
Ta       8.17839113       3.73260250      11.67226827       0.00000000       0.00000000       0.00000000
Ta       1.00828736       7.61184309      10.12608038       0.00000000       0.00000000       0.00000000
Ta      11.84373304       3.53081395      11.78558299       0.00000000       0.00000000       0.00000000
Ta      11.47548204       5.79404886      10.33417299       0.00000000       0.00000000       0.00000000
Ta       9.24974743       1.16516670       6.94642740       0.00000000       0.00000000       0.00000000
Ta      12.65292010       2.98534528      14.25452487       0.00000000       0.00000000       0.00000000
Ti      11.28276361       2.42014119      17.15920665       0.00000000       0.00000000       0.00000000
Ti      11.26690918       7.10387142       7.20672153       0.00000000       0.00000000       0.00000000
Ti       3.65246245       0.25754393      16.58730249       0.00000000       0.00000000       0.00000000
Ti      11.66678999       2.86550080       8.56544815       0.00000000       0.00000000       0.00000000
Ti       2.05077322       4.75650309       6.77871233       0.00000000       0.00000000       0.00000000
Zr       4.33086436       6.96529872      15.27015648       0.00000000       0.00000000       0.00000000
Zr      10.14273671       7.42144727      16.64513563       0.00000000       0.00000000       0.00000000
Zr       9.74128535       2.36750396      13.73001702       0.00000000       0.00000000       0.00000000
Zr      10.70614427       5.25603845      13.12645271       0.00000000       0.00000000       0.00000000
Zr       3.78644186       7.07526405      10.81509947       0.00000000       0.00000000       0.00000000
Zr       0.87137601       0.03005354       9.49423999       0.00000000       0.00000000       0.00000000
Zr       0.41880718       3.73432842      13.04373801       0.00000000       0.00000000       0.00000000
Zr       7.38521751       6.43109467      14.57171667       0.00000000       0.00000000       0.00000000
Zr       6.72455126       1.90431243       8.69916676       0.00000000       0.00000000       0.00000000
C        9.47303997      22.08524308      14.31492861       0.00000000       0.00000000       0.00000000
C       10.65519122      20.91419430      12.25882598       0.00000000       0.00000000       0.00000000
C       11.03509496      18.00135196      16.12483068       0.00000000       0.00000000       0.00000000
C        5.59301083      19.97319173      13.43930145       0.00000000       0.00000000       0.00000000
C        4.51331650      22.35389168       7.81142561       0.00000000       0.00000000       0.00000000
C        7.29901669      15.22957286      15.20911035       0.00000000       0.00000000       0.00000000
C       10.42838429      21.64042063       6.65671454       0.00000000       0.00000000       0.00000000
C        0.92930334      22.39956700      15.95056025       0.00000000       0.00000000       0.00000000
C        9.35822386      17.55305601      13.45374252       0.00000000       0.00000000       0.00000000
C        4.38620657      11.85344934       9.06059407       0.00000000       0.00000000       0.00000000
C        7.01315994      10.43975610       8.77404215       0.00000000       0.00000000       0.00000000
C        6.65435656      12.61560242      10.88722319       0.00000000       0.00000000       0.00000000
C       11.30444348      10.46023120      16.29521110       0.00000000       0.00000000       0.00000000
C       11.53011823      15.33793360      11.67621009       0.00000000       0.00000000       0.00000000
C        1.25283520      17.20989254       6.40595096       0.00000000       0.00000000       0.00000000
C        6.90206825       8.44896991      14.91100309       0.00000000       0.00000000       0.00000000
C       10.83527423      11.09999405      15.08097375       0.00000000       0.00000000       0.00000000
C       10.70212277      18.01044343       8.42237073       0.00000000       0.00000000       0.00000000
C       12.64940538       9.97668822      12.50886348       0.00000000       0.00000000       0.00000000
C        9.68426027      18.39374444       9.38877361       0.00000000       0.00000000       0.00000000
C        5.26966329      18.74347847       9.05102089       0.00000000       0.00000000       0.00000000
C        9.96002885       9.88106269      11.03647765       0.00000000       0.00000000       0.00000000
C        5.06231484      14.37507041      12.42261485       0.00000000       0.00000000       0.00000000
C        9.38699328      16.12893954       6.62588400       0.00000000       0.00000000       0.00000000
C       10.55693210      20.55792844      11.03072396       0.00000000       0.00000000       0.00000000
C       10.62017959       8.69136717      11.35661581       0.00000000       0.00000000       0.00000000
C       13.31718820      13.17511047       8.48937996       0.00000000       0.00000000       0.00000000
C        6.67183949      16.97891738      11.41590110       0.00000000       0.00000000       0.00000000
C       13.40879016      12.14964078      13.08602368       0.00000000       0.00000000       0.00000000
C        4.30042202      19.45108848       9.85388378       0.00000000       0.00000000       0.00000000
C        5.05643784       8.59091285       6.65272760       0.00000000       0.00000000       0.00000000
C        7.10139083      22.31702398      16.47259635       0.00000000       0.00000000       0.00000000
C        5.89295582      15.63626194      15.39949850       0.00000000       0.00000000       0.00000000
C       10.34056108      13.07805810      12.75268942       0.00000000       0.00000000       0.00000000
C       11.43898779      12.81094798       9.58264615       0.00000000       0.00000000       0.00000000
C        5.91952975       9.32643114      15.16235884       0.00000000       0.00000000       0.00000000
C        7.41821720      16.90387107       7.85304080       0.00000000       0.00000000       0.00000000
C        2.62734752      19.30796762       9.60777683       0.00000000       0.00000000       0.00000000
C        7.07551660      21.45519939      10.66171117       0.00000000       0.00000000       0.00000000
C        2.28162630      14.17329137       9.39017232       0.00000000       0.00000000       0.00000000
C        3.21120010      19.15286475      13.78777769       0.00000000       0.00000000       0.00000000
C       13.23915879      13.71528131      15.46376330       0.00000000       0.00000000       0.00000000
C        7.55279334      16.09699033      11.71159748       0.00000000       0.00000000       0.00000000
C        4.58177577      15.25817206       8.87042047       0.00000000       0.00000000       0.00000000
C        3.61516926       9.18186924      11.02540408       0.00000000       0.00000000       0.00000000
C        2.55678118      11.30103098      14.51904131       0.00000000       0.00000000       0.00000000
C        0.39162717      17.89683598      16.09282436       0.00000000       0.00000000       0.00000000
C        4.33442893       8.95886845       9.80009987       0.00000000       0.00000000       0.00000000
C        3.15747308       8.70337714      13.52532382       0.00000000       0.00000000       0.00000000
C        7.16092373      19.67018259       7.88654605       0.00000000       0.00000000       0.00000000
C        2.14651984      11.73253064       6.56478021       0.00000000       0.00000000       0.00000000
C        4.70591053      11.27701803      15.69832191       0.00000000       0.00000000       0.00000000
C        8.60754058      11.07189995      14.37642329       0.00000000       0.00000000       0.00000000
C       10.15478835      21.67700805      15.52323185       0.00000000       0.00000000       0.00000000
C       10.65255949      14.68690154      15.59102777       0.00000000       0.00000000       0.00000000
C        4.21492908      20.05023490      13.02318140       0.00000000       0.00000000       0.00000000
C        4.14289003      11.13140713      10.46352661       0.00000000       0.00000000       0.00000000
C        7.07433658      13.54884981      16.59103898       0.00000000       0.00000000       0.00000000
C       12.63948721      10.64650748       6.60015020       0.00000000       0.00000000       0.00000000
C        9.67555609      13.29070390       6.63621573       0.00000000       0.00000000       0.00000000
Hf       3.43497694      18.33555604      11.82032551       0.00000000       0.00000000       0.00000000
Hf      11.75364868       8.28945687      13.34036386       0.00000000       0.00000000       0.00000000
Hf       3.27551556      15.29527178      16.65282803       0.00000000       0.00000000       0.00000000
Hf       1.44358759      20.14250324      15.53739795       0.00000000       0.00000000       0.00000000
Hf       2.52300824      20.98753828       7.49595901       0.00000000       0.00000000       0.00000000
Hf      11.45251422      11.45251422      11.96281572       0.00000000       0.00000000       0.00000000
Hf       9.48542437      15.89789746       8.62309645       0.00000000       0.00000000       0.00000000
Hf       5.03209931      13.50880718      14.28338761       0.00000000       0.00000000       0.00000000
Hf       0.16632071       9.90863997      14.70983570       0.00000000       0.00000000       0.00000000
Hf       8.54891587       9.39503383      12.29105583       0.00000000       0.00000000       0.00000000
Hf       1.68807275       9.42594537      12.20552556       0.00000000       0.00000000       0.00000000
Nb      12.63586290      22.46759804      15.53173737       0.00000000       0.00000000       0.00000000
Nb       7.43270740      18.14335622       9.13233733       0.00000000       0.00000000       0.00000000
Nb       6.41032530      18.05887363       6.57629662       0.00000000       0.00000000       0.00000000
Nb       9.50343687      13.04131019      14.52842981       0.00000000       0.00000000       0.00000000
Nb       5.60638769      14.65688643      10.56871657       0.00000000       0.00000000       0.00000000
Nb       9.94780325      20.11317855      14.27351088       0.00000000       0.00000000       0.00000000
Nb      11.75563687      16.52377001      14.77024291       0.00000000       0.00000000       0.00000000
Nb       8.40893874       9.39028846       9.42511232       0.00000000       0.00000000       0.00000000
Nb       8.38813986      21.89741595      12.38304339       0.00000000       0.00000000       0.00000000
Nb       1.05264625      22.23448540       9.61471466       0.00000000       0.00000000       0.00000000
Nb       0.58034258      18.93051170      12.44184680       0.00000000       0.00000000       0.00000000
Nb      10.36781681      13.97603741      10.64245490       0.00000000       0.00000000       0.00000000
Nb       7.53906526      12.16660703       7.56024668       0.00000000       0.00000000       0.00000000
Nb       8.59744049      11.74730179      11.41738534       0.00000000       0.00000000       0.00000000
Nb       1.76823798      12.64790555      15.70890664       0.00000000       0.00000000       0.00000000
Nb      11.26579805      13.73593664       7.65275631       0.00000000       0.00000000       0.00000000
Nb       7.19133841      21.09571894      14.63406991       0.00000000       0.00000000       0.00000000
Ta       7.39586331      11.14610883      15.66101543       0.00000000       0.00000000       0.00000000
Ta       9.51562715      15.60025345      12.72334462       0.00000000       0.00000000       0.00000000
Ta       2.62711444       9.84034288      16.32321359       0.00000000       0.00000000       0.00000000
Ta       0.33348926      13.86856101      10.46127304       0.00000000       0.00000000       0.00000000
Ta       0.88098859      19.03485606      10.05948319       0.00000000       0.00000000       0.00000000
Ta       6.07341335      10.50621077      10.71771088       0.00000000       0.00000000       0.00000000
Ta       5.45625026      22.08818740      12.32744707       0.00000000       0.00000000       0.00000000
Ta      11.72384136      20.52538398      16.94439779       0.00000000       0.00000000       0.00000000
Ta      12.59271044       8.94639565      10.24607644       0.00000000       0.00000000       0.00000000
Ta       3.63217361      13.42031123       8.01973245       0.00000000       0.00000000       0.00000000
Ta       5.78331314      20.99763259       9.22861465       0.00000000       0.00000000       0.00000000
Ta      13.27945179      10.18171973      14.93613706       0.00000000       0.00000000       0.00000000
Ta       2.17646688      17.19782989      14.45375086       0.00000000       0.00000000       0.00000000
Ta       4.54247663      10.18008366      13.85908262       0.00000000       0.00000000       0.00000000
Ti       1.29276248      15.82547348       8.55757090       0.00000000       0.00000000       0.00000000
Ti       5.16449538       9.95997416       8.00282215       0.00000000       0.00000000       0.00000000
Ti      12.52710016      17.67172592       8.75363416       0.00000000       0.00000000       0.00000000
Ti      12.67338602      11.32553576       8.17720673       0.00000000       0.00000000       0.00000000
Ti       2.48081395      21.53878070      11.75593101       0.00000000       0.00000000       0.00000000
Ti      11.61012817      14.16502418      13.84767513       0.00000000       0.00000000       0.00000000
Ti       5.16067253      18.48849506      16.62366260       0.00000000       0.00000000       0.00000000
Ti       5.85795567      15.66747277       7.39397390       0.00000000       0.00000000       0.00000000
Zr       3.42479069      18.20066638       8.00487060       0.00000000       0.00000000       0.00000000
Zr       1.41479703      10.89338125       8.46683663       0.00000000       0.00000000       0.00000000
Zr      12.43396489      14.33670614      17.12338161       0.00000000       0.00000000       0.00000000
Zr       9.09097097      18.49205731      11.55430564       0.00000000       0.00000000       0.00000000
Zr      12.75023979      20.62748920      13.21984208       0.00000000       0.00000000       0.00000000
Zr       2.94456080      12.53601534      11.79170755       0.00000000       0.00000000       0.00000000
Zr       6.79542221      16.90728008      13.65694292       0.00000000       0.00000000       0.00000000
Zr       9.12915971      18.51933121       6.50993192       0.00000000       0.00000000       0.00000000
Zr       3.41885756      22.58517637      15.25211924       0.00000000       0.00000000       0.00000000
Zr       9.13101151      16.71956853      15.55178392       0.00000000       0.00000000       0.00000000
Zr       8.77148931      21.15838743       9.31630249       0.00000000       0.00000000       0.00000000
Zr      11.76804695      22.49191015       9.42470580       0.00000000       0.00000000       0.00000000
Zr      11.35146962      20.09422360       7.81471135       0.00000000       0.00000000       0.00000000
C       19.48220570       2.52549692      16.68938344       0.00000000       0.00000000       0.00000000
C       20.71306060       2.31246422      10.41541029       0.00000000       0.00000000       0.00000000
C       16.14595162       2.48355126      17.07250265       0.00000000       0.00000000       0.00000000
C       15.99446997       6.94188025       8.07708140       0.00000000       0.00000000       0.00000000
C       13.70024760       4.33703540      11.17473728       0.00000000       0.00000000       0.00000000
C       20.68611156       1.62304705       6.82472859       0.00000000       0.00000000       0.00000000
C       22.06376102       5.83883658      17.50806572       0.00000000       0.00000000       0.00000000
C       17.19371201       7.76496204      16.33770733       0.00000000       0.00000000       0.00000000
C       19.35693730       6.36619799      15.84269859       0.00000000       0.00000000       0.00000000
C       22.56339518       7.04783161      17.06977599       0.00000000       0.00000000       0.00000000
C       15.29840631       6.84571932      10.95631400       0.00000000       0.00000000       0.00000000
C       17.47467366       2.04418249      13.88320952       0.00000000       0.00000000       0.00000000
C       22.20405570       2.45612272      14.36263013       0.00000000       0.00000000       0.00000000
C       15.29427544       5.33593752      14.41208138       0.00000000       0.00000000       0.00000000
C       22.52387060       1.30001411      13.65609759       0.00000000       0.00000000       0.00000000
C       20.69601572       5.33997170      13.96593578       0.00000000       0.00000000       0.00000000
C       17.17274382       6.25873579       8.47103799       0.00000000       0.00000000       0.00000000
C       17.54683160       4.91147950      11.79102402       0.00000000       0.00000000       0.00000000
C       13.51642922       3.91337247       8.29676670       0.00000000       0.00000000       0.00000000
C       18.05895682       5.98359313      11.27320705       0.00000000       0.00000000       0.00000000
C       19.73283859       4.73001025       7.28882678       0.00000000       0.00000000       0.00000000
C       13.81895964       0.96667208      16.25452040       0.00000000       0.00000000       0.00000000
C       21.59911563       2.94622465      11.18555941       0.00000000       0.00000000       0.00000000
Hf      22.41761746       6.95297829       8.92629536       0.00000000       0.00000000       0.00000000
Hf      13.84870220       1.53585161       6.77084897       0.00000000       0.00000000       0.00000000
Hf      14.56343007       4.47531560      16.82008469       0.00000000       0.00000000       0.00000000
Hf      13.71199409       5.55670022      12.74773958       0.00000000       0.00000000       0.00000000
Hf      17.99091515       2.13990967      11.34533250       0.00000000       0.00000000       0.00000000
Hf      21.66358651       7.39035171      12.94978584       0.00000000       0.00000000       0.00000000
Nb      16.12797722       4.16774520      13.22875535       0.00000000       0.00000000       0.00000000
Nb      22.21544873       4.11811163      13.35993445       0.00000000       0.00000000       0.00000000
Nb      19.28614322       2.84140361      14.71198554       0.00000000       0.00000000       0.00000000
Nb      21.10475437       1.41457212      16.71196477       0.00000000       0.00000000       0.00000000
Ta      20.73359956       5.61521640      11.00819357       0.00000000       0.00000000       0.00000000
Ta      17.93019227       4.75996391       9.41353346       0.00000000       0.00000000       0.00000000
Ta      15.68034260       3.68824664       7.34948927       0.00000000       0.00000000       0.00000000
Ta      19.20022059       0.13359260      14.15887923       0.00000000       0.00000000       0.00000000
Ta      18.49955232       1.04256554       6.93639672       0.00000000       0.00000000       0.00000000
Ta      14.50341002       7.02389576      15.82662878       0.00000000       0.00000000       0.00000000
Ta      16.01627198       6.83617624      13.06118016       0.00000000       0.00000000       0.00000000
Ti      16.27678583       0.35595342      13.79929674       0.00000000       0.00000000       0.00000000
Ti      15.64403812       5.14439865      10.62680343       0.00000000       0.00000000       0.00000000
Ti      20.19081612       0.04839379       9.94706414       0.00000000       0.00000000       0.00000000
Ti      17.05353258       5.77450127      16.05367724       0.00000000       0.00000000       0.00000000
Ti      17.80248339       3.28054611      17.29832676       0.00000000       0.00000000       0.00000000
Ti      16.95409452       7.67447518       9.99553003       0.00000000       0.00000000       0.00000000
Ti      20.15751953       6.83434017       6.81881048       0.00000000       0.00000000       0.00000000
Ti      15.63283505       0.77227468      17.36188714       0.00000000       0.00000000       0.00000000
Ti      21.36215006       5.91574524      15.69661738       0.00000000       0.00000000       0.00000000
Ti      16.06654183       2.67857257      15.36050738       0.00000000       0.00000000       0.00000000
Zr      21.82635479       4.03039032       8.00623355       0.00000000       0.00000000       0.00000000
Zr      14.38843154       1.88764470      11.03824450       0.00000000       0.00000000       0.00000000
Zr      18.38735425       5.77278669      13.60188883       0.00000000       0.00000000       0.00000000
Zr      14.05561047       6.03552804       7.99305157       0.00000000       0.00000000       0.00000000
C       14.22658294      21.16984206      11.72222904       0.00000000       0.00000000       0.00000000
C       18.44610880      18.95014380       9.70279774       0.00000000       0.00000000       0.00000000
C       14.69144754      17.18688565       8.86132810       0.00000000       0.00000000       0.00000000
C       21.87466896      11.35931659       6.96531539       0.00000000       0.00000000       0.00000000
C       22.25681517      10.61762229      15.91595442       0.00000000       0.00000000       0.00000000
C       14.41402908       9.87188583       9.64321036       0.00000000       0.00000000       0.00000000
C       17.81163013      13.36603870      13.54577532       0.00000000       0.00000000       0.00000000
C       21.64979806      14.49962200       8.73902631       0.00000000       0.00000000       0.00000000
C       19.66843725      19.41651864       6.59733077       0.00000000       0.00000000       0.00000000
C       18.20549468      16.47618938       8.30941464       0.00000000       0.00000000       0.00000000
C       17.60841358      10.05583294      13.53936755       0.00000000       0.00000000       0.00000000
C       14.94298756      11.94323368      13.61028451       0.00000000       0.00000000       0.00000000
C       20.40068181      13.60280434      12.38362856       0.00000000       0.00000000       0.00000000
C       19.40939865      19.01004515      14.45759272       0.00000000       0.00000000       0.00000000
C       18.76984404       9.88568851       9.16850250       0.00000000       0.00000000       0.00000000
C       17.87914265      10.76866103       8.90300559       0.00000000       0.00000000       0.00000000
C       22.00253195      20.59385411      10.23872888       0.00000000       0.00000000       0.00000000
C       21.46158275      17.68640886      13.16114889       0.00000000       0.00000000       0.00000000
C       19.53260678      20.63448677       6.56439380       0.00000000       0.00000000       0.00000000
C       20.52881363      13.40699625       9.63110445       0.00000000       0.00000000       0.00000000
C       21.18833100      11.23810207      11.35151045       0.00000000       0.00000000       0.00000000
C       17.58489509       9.61043871      11.84673248       0.00000000       0.00000000       0.00000000
C       20.15423866      21.29792835      11.92530766       0.00000000       0.00000000       0.00000000
C       13.60268070      20.61192919       8.53401455       0.00000000       0.00000000       0.00000000
C       22.18749027      10.57678539      11.20670885       0.00000000       0.00000000       0.00000000
C       21.18866289      14.36458786      17.19698559       0.00000000       0.00000000       0.00000000
C       15.42938546      14.38881843      16.53564640       0.00000000       0.00000000       0.00000000
C       21.65658471      16.99597921      10.31572010       0.00000000       0.00000000       0.00000000
C       15.97898529      20.62460263      11.54909195       0.00000000       0.00000000       0.00000000
C       17.06038056      16.36570324      11.41128298       0.00000000       0.00000000       0.00000000
C       17.44980772      22.16054084      14.30440644       0.00000000       0.00000000       0.00000000
C       17.15472691      16.00248894       7.69266603       0.00000000       0.00000000       0.00000000
C       14.36397188      17.19275634       7.23806287       0.00000000       0.00000000       0.00000000
C       15.74308147      22.71925763       7.51202407       0.00000000       0.00000000       0.00000000
C       16.27040317      21.72605089       7.00980085       0.00000000       0.00000000       0.00000000
C       14.07112423      16.26983895      13.79449705       0.00000000       0.00000000       0.00000000
C       14.41995416      15.40894603       9.66511245       0.00000000       0.00000000       0.00000000
C       13.51067512      17.60799704      13.67235002       0.00000000       0.00000000       0.00000000
C       18.14383161       8.55575715      17.00636189       0.00000000       0.00000000       0.00000000
C       17.88194156      16.31020326      15.37080587       0.00000000       0.00000000       0.00000000
C       19.69353580      17.89202616      13.53143129       0.00000000       0.00000000       0.00000000
C       15.65882044      18.74243396      16.56987797       0.00000000       0.00000000       0.00000000
C       13.73297608       9.22093989       8.30899237       0.00000000       0.00000000       0.00000000
C       21.09570614       8.39673806      10.13113956       0.00000000       0.00000000       0.00000000
C       22.85738413      14.30347522      17.06959707       0.00000000       0.00000000       0.00000000
C       16.47849866      13.98390679      13.27020067       0.00000000       0.00000000       0.00000000
C       17.34149360      13.16699742       7.23966000       0.00000000       0.00000000       0.00000000
C       21.53753062      16.77575990      14.59126732       0.00000000       0.00000000       0.00000000
Hf      18.13133068      20.73305350      13.08632026       0.00000000       0.00000000       0.00000000
Hf      18.80888850      22.41999845       7.38641448       0.00000000       0.00000000       0.00000000
Hf      15.76438838      11.88119473       8.77089380       0.00000000       0.00000000       0.00000000
Hf      17.01282574      15.26428331       9.88096235       0.00000000       0.00000000       0.00000000
Hf      20.21411288      18.62600831      11.36340483       0.00000000       0.00000000       0.00000000
Hf      19.58883719      12.77088347       7.42612566       0.00000000       0.00000000       0.00000000
Hf      18.23516426      20.82710988      10.23292648       0.00000000       0.00000000       0.00000000
Nb      17.33825901      18.54657980      14.88446167       0.00000000       0.00000000       0.00000000
Nb      20.38693041       9.93685175      15.85546372       0.00000000       0.00000000       0.00000000
Nb      20.78889430      22.83172625       9.78557829       0.00000000       0.00000000       0.00000000
Nb      17.92557092      15.68136904      13.15239845       0.00000000       0.00000000       0.00000000
Nb      21.20568570      14.83852678      13.60337223       0.00000000       0.00000000       0.00000000
Nb      15.83039971      21.20132794      16.17921067       0.00000000       0.00000000       0.00000000
Nb      15.28601852      22.19689376      10.31254593       0.00000000       0.00000000       0.00000000
Nb      16.35371079       9.02924444       7.86217640       0.00000000       0.00000000       0.00000000
Nb      17.41696862      13.54820077      16.47122658       0.00000000       0.00000000       0.00000000
Nb      22.07956809      19.22750518      14.06552317       0.00000000       0.00000000       0.00000000
Nb      21.84860510      12.67982864      15.64038703       0.00000000       0.00000000       0.00000000
Nb      14.79672799      12.49675142      16.02135915       0.00000000       0.00000000       0.00000000
Nb      15.33828385      21.80610504      13.57851409       0.00000000       0.00000000       0.00000000
Nb      20.65178156      19.89173594      15.93545608       0.00000000       0.00000000       0.00000000
Ta      20.07283203      16.96566038      15.90631087       0.00000000       0.00000000       0.00000000
Ta      13.96003822      18.97033839      15.44079680       0.00000000       0.00000000       0.00000000
Ta      16.45490731      17.69974290      10.22975996       0.00000000       0.00000000       0.00000000
Ta      19.72554350      11.96188197      13.39060383       0.00000000       0.00000000       0.00000000
C       20.75826725       9.68752164       7.98036753       0.00000000       0.00000000       0.00000000
Ta      18.82376070       8.32199314      14.57534845       0.00000000       0.00000000       0.00000000
Ta      22.03795815      12.08554727       9.18619307       0.00000000       0.00000000       0.00000000
Ti      22.36009948      20.89590679      11.98165231       0.00000000       0.00000000       0.00000000
Ti      14.86600456      18.87433619      12.50898834       0.00000000       0.00000000       0.00000000
Ti      20.01461904      14.90626301      11.15588895       0.00000000       0.00000000       0.00000000
Ti      15.07216072      19.16949745       7.81402525       0.00000000       0.00000000       0.00000000
Ti      16.61256907      11.62297493      11.99327241       0.00000000       0.00000000       0.00000000
Ti      21.79287897      10.57961221      13.96951284       0.00000000       0.00000000       0.00000000
Ti      22.66445309      21.61988405      16.24777662       0.00000000       0.00000000       0.00000000
Ti      14.68986854      14.29756052      13.75911852       0.00000000       0.00000000       0.00000000
Zr      14.32197561      13.75848477      10.66331520       0.00000000       0.00000000       0.00000000
Zr      14.54872816      14.73120761       7.52389542       0.00000000       0.00000000       0.00000000
Zr      15.31681819      16.55491586      16.89291456       0.00000000       0.00000000       0.00000000
Zr      19.12359795      12.20756070      10.46203996       0.00000000       0.00000000       0.00000000
Zr      16.31709867       9.94772344      16.48468410       0.00000000       0.00000000       0.00000000
Zr      18.86273864      22.70037656      15.33616926       0.00000000       0.00000000       0.00000000
Zr      19.52992826       9.34972031      11.68571089       0.00000000       0.00000000       0.00000000
Zr      14.89959723       9.77434686      12.73917321       0.00000000       0.00000000       0.00000000
Zr      13.50866177      16.40022802      11.45617113       0.00000000       0.00000000       0.00000000
Zr      20.80054483      19.75429450       8.36452399       0.00000000       0.00000000       0.00000000
Zr      20.91733003      16.44925110       8.09019992       0.00000000       0.00000000       0.00000000
853
Lattice="22.90502845 0.0 0.0 0.0 22.90502845 0.0 0.0 0.0 22.90502845" Properties=species:S:1:pos:R:3:momenta:R:3 pbc="T T T"
C       19.99091443       7.48617555       2.86350752       0.00000000       0.00000000       0.00000000
C       11.46315026      16.56397962       0.69789535       0.00000000       0.00000000       0.00000000
C       16.99037656       8.75457361       3.95163046       0.00000000       0.00000000       0.00000000
C       15.16672280      12.91510818       4.44274133       0.00000000       0.00000000       0.00000000
C        2.60505458       1.05013721      18.73378403       0.00000000       0.00000000       0.00000000
C        3.57142143      15.14947627       6.24932261       0.00000000       0.00000000       0.00000000
C        9.25308280      10.55652143       1.95930547       0.00000000       0.00000000       0.00000000
C       17.13109193      12.08420951      18.80218997       0.00000000       0.00000000       0.00000000
C       16.05670406      18.19742321       6.00195537       0.00000000       0.00000000       0.00000000
C        2.88403516       5.35524639       0.33030199       0.00000000       0.00000000       0.00000000
C        8.40823238       0.34285021      18.86187655       0.00000000       0.00000000       0.00000000
C       11.36838455       6.41494328       1.51453877       0.00000000       0.00000000       0.00000000
C        3.64576634      16.35692506      19.18692444       0.00000000       0.00000000       0.00000000
C       19.91749163      10.87731157      17.53796898       0.00000000       0.00000000       0.00000000
C        4.73594219      19.29158546      18.51482427       0.00000000       0.00000000       0.00000000
C        8.52453794      15.41469839      22.43995826       0.00000000       0.00000000       0.00000000
C       20.52488270       5.74761909      20.45507737       0.00000000       0.00000000       0.00000000
C        8.36369189       7.62884434       2.52385023       0.00000000       0.00000000       0.00000000
C        8.38938330       3.68486869      20.90537226       0.00000000       0.00000000       0.00000000
C        1.62186842      17.29954424       4.55477848       0.00000000       0.00000000       0.00000000
C       22.70390860      21.80386723       4.85310548       0.00000000       0.00000000       0.00000000
C       10.22477638      11.33893417      21.99111898       0.00000000       0.00000000       0.00000000
C        0.74986176      19.86080189      22.54548249       0.00000000       0.00000000       0.00000000
C       19.89564519       9.65960267       5.12173290       0.00000000       0.00000000       0.00000000
C       11.35483102      14.27093658      21.31701322       0.00000000       0.00000000       0.00000000
C        3.62895801      18.56467707      21.55064873       0.00000000       0.00000000       0.00000000
C        4.59907625      11.31322410      21.91794288       0.00000000       0.00000000       0.00000000
C       17.04828884      22.26537823      17.76757929       0.00000000       0.00000000       0.00000000
C       14.07652689      20.12025695       4.07387790       0.00000000       0.00000000       0.00000000
C       21.62132592      18.31918099       5.90534094       0.00000000       0.00000000       0.00000000
C       16.96633228      10.91550134       6.29912256       0.00000000       0.00000000       0.00000000
C       13.29576412      22.70535788      21.93612015       0.00000000       0.00000000       0.00000000
C       22.58453384      19.52239201       2.63055513       0.00000000       0.00000000       0.00000000
C       14.17232573      13.33580095      20.18300188       0.00000000       0.00000000       0.00000000
C        2.69978168       3.31114767      20.99578656       0.00000000       0.00000000       0.00000000
C        8.44219341      22.34425831       6.13225803       0.00000000       0.00000000       0.00000000
C        3.58555694      12.83335509       4.18189330       0.00000000       0.00000000       0.00000000
C       16.19523186      13.56747496       1.34605098       0.00000000       0.00000000       0.00000000
C        6.80482391       1.34449610       4.26614956       0.00000000       0.00000000       0.00000000
C        1.77180446       6.73596249       5.79221549       0.00000000       0.00000000       0.00000000
C       13.30345419      12.47835097       0.22107473       0.00000000       0.00000000       0.00000000
C        7.54132770      16.82376223       4.77362192       0.00000000       0.00000000       0.00000000
C        3.72928363       8.25033970      22.49143787       0.00000000       0.00000000       0.00000000
C        9.20598859       8.34547810      22.57312080       0.00000000       0.00000000       0.00000000
C       11.48761215       1.25169482      19.97776978       0.00000000       0.00000000       0.00000000
C        6.52442705       5.02994090      19.06038177       0.00000000       0.00000000       0.00000000
C       11.27864275      12.19944927      19.01955435       0.00000000       0.00000000       0.00000000
C       16.04336497       0.97592458       0.26576141       0.00000000       0.00000000       0.00000000
C        4.71776280       1.22174449       0.06991577       0.00000000       0.00000000       0.00000000
C       22.00456558       1.05322743       0.09184330       0.00000000       0.00000000       0.00000000
C       18.75983735      20.38917273      19.51163941       0.00000000       0.00000000       0.00000000
C       12.24232392      17.26574206      20.45352638       0.00000000       0.00000000       0.00000000
C        0.02290726       8.63519843       3.75868847       0.00000000       0.00000000       0.00000000
C        6.56189864       7.39647796      21.24092649       0.00000000       0.00000000       0.00000000
C       15.23856364      20.67735924       0.93249987       0.00000000       0.00000000       0.00000000
C        5.13236982       3.60617958       3.18758578       0.00000000       0.00000000       0.00000000
C        8.22321963      13.03482950      20.05234064       0.00000000       0.00000000       0.00000000
C       20.94293913       0.47241290       3.11056296       0.00000000       0.00000000       0.00000000
C        0.18089761      12.01536067      18.82566266       0.00000000       0.00000000       0.00000000
C        0.84468461       4.90932191      19.21122368       0.00000000       0.00000000       0.00000000
C       11.41485272      21.21239396       5.16976831       0.00000000       0.00000000       0.00000000
C       19.15639047       6.81439221       5.82386787       0.00000000       0.00000000       0.00000000
C        5.46213115      19.12950805       2.75502960       0.00000000       0.00000000       0.00000000
C        4.48861538       5.98066503       4.58566985       0.00000000       0.00000000       0.00000000
C       15.08890253      18.37418571      21.64969251       0.00000000       0.00000000       0.00000000
C       18.28966361      11.70193006       3.24019781       0.00000000       0.00000000       0.00000000
C        7.38090626      12.37008379       0.20488420       0.00000000       0.00000000       0.00000000
C       14.17326432       2.88636831      21.22360866       0.00000000       0.00000000       0.00000000
C        7.31431545       6.77588680       5.72271815       0.00000000       0.00000000       0.00000000
C        5.63530150      12.16877965      18.85945602       0.00000000       0.00000000       0.00000000
C        6.61875962      15.17925668      18.20012402       0.00000000       0.00000000       0.00000000
C       20.85604040      12.98308516       4.31281854       0.00000000       0.00000000       0.00000000
C       10.35504228       3.18280180       2.33234901       0.00000000       0.00000000       0.00000000
C       19.47092735      10.42613181      20.31390509       0.00000000       0.00000000       0.00000000
C       12.19403402       7.32349634      21.53561612       0.00000000       0.00000000       0.00000000
C        3.68571886       2.84175759       5.54957569       0.00000000       0.00000000       0.00000000
C        0.05172649       6.43883092       1.48171989       0.00000000       0.00000000       0.00000000
C        6.43802788      22.02172711       2.04887716       0.00000000       0.00000000       0.00000000
C       16.15133902      15.78771652       3.70882099       0.00000000       0.00000000       0.00000000
C       19.90859577       2.85568121      21.35147526       0.00000000       0.00000000       0.00000000
C       19.76129387      15.58270769      22.14423217       0.00000000       0.00000000       0.00000000
C        9.35317310       6.19301306      20.19093347       0.00000000       0.00000000       0.00000000
C       17.97358235       6.51988867      21.75681640       0.00000000       0.00000000       0.00000000
C       13.36063634      14.67835012       2.75097361       0.00000000       0.00000000       0.00000000
C       13.11075401       8.08828676      18.54930920       0.00000000       0.00000000       0.00000000
C       16.14029207       5.64182297       4.73876153       0.00000000       0.00000000       0.00000000
C       18.10841492      17.44216280      20.15981702       0.00000000       0.00000000       0.00000000
C       19.14744075      12.42317008       0.06647133       0.00000000       0.00000000       0.00000000
C        0.86687320      11.93768831       3.06883401       0.00000000       0.00000000       0.00000000
C       14.99024180       3.61888881      18.37642108       0.00000000       0.00000000       0.00000000
C       18.96647626      22.85307658      21.93610847       0.00000000       0.00000000       0.00000000
C        2.62232749      15.60443219      22.30974560       0.00000000       0.00000000       0.00000000
C        2.85027922       7.68511578       2.62572683       0.00000000       0.00000000       0.00000000
C        2.66858682      20.37588894       3.78166774       0.00000000       0.00000000       0.00000000
C       20.83053970      18.72675916      21.22734945       0.00000000       0.00000000       0.00000000
C        2.00769097      10.15768655      20.79633739       0.00000000       0.00000000       0.00000000
C        7.58755432       8.07270130      18.35253430       0.00000000       0.00000000       0.00000000
C       12.11859161      15.17972756      18.15610366       0.00000000       0.00000000       0.00000000
C       13.25900610      20.44084319      19.70702900       0.00000000       0.00000000       0.00000000
C       14.08832606      22.52850909       6.31934477       0.00000000       0.00000000       0.00000000
C       16.04287446      19.32154874      18.34567730       0.00000000       0.00000000       0.00000000
C        1.09028200       1.81323120       4.32934158       0.00000000       0.00000000       0.00000000
C       19.99850345       0.55551434      19.01662354       0.00000000       0.00000000       0.00000000
C       10.43463031      19.21852028      18.44473361       0.00000000       0.00000000       0.00000000
C       18.41391625      10.02450050      20.86293766       0.00000000       0.00000000       0.00000000
C       13.91999239       5.04073378       0.59549293       0.00000000       0.00000000       0.00000000
C       18.77906869      17.24752113       4.72093709       0.00000000       0.00000000       0.00000000
C       17.12508392      18.97893874       2.84559589       0.00000000       0.00000000       0.00000000
C       12.43720378      13.85970775       5.75155751       0.00000000       0.00000000       0.00000000
C        5.67720314      14.32499333      21.21195103       0.00000000       0.00000000       0.00000000
C        6.30836451       9.41137930       0.84492821       0.00000000       0.00000000       0.00000000
C       22.84722523       1.60740663      20.08219639       0.00000000       0.00000000       0.00000000
C       15.01403161       6.19983058      20.51803702       0.00000000       0.00000000       0.00000000
C       18.24758247       9.53566841       0.95361362       0.00000000       0.00000000       0.00000000
C       16.01661897       3.27467922       2.46418516       0.00000000       0.00000000       0.00000000
C       17.81100767       1.37147443       4.52579418       0.00000000       0.00000000       0.00000000
C        8.39408436      11.07656542      17.56075304       0.00000000       0.00000000       0.00000000
C       17.98303245      19.67956568      22.72931367       0.00000000       0.00000000       0.00000000
C       12.25953859       4.88773688      19.28106721       0.00000000       0.00000000       0.00000000
C       12.31646096      11.65724428       3.15402928       0.00000000       0.00000000       0.00000000
C       14.86491235       8.37576521      22.70906705       0.00000000       0.00000000       0.00000000
C        0.80327527      14.09390050       5.39011828       0.00000000       0.00000000       0.00000000
C        8.59675302      17.70406780       1.78956821       0.00000000       0.00000000       0.00000000
C       20.87344928      16.28998804      19.09259031       0.00000000       0.00000000       0.00000000
C       17.09208393      16.63781697       0.37751647       0.00000000       0.00000000       0.00000000
C       12.92570260      10.21926990      21.09912093       0.00000000       0.00000000       0.00000000
C        2.00520349       4.62002591       3.66619243       0.00000000       0.00000000       0.00000000
C        0.62737969       7.03803577      21.57171868       0.00000000       0.00000000       0.00000000
C        5.62269585      21.37538794       4.83296093       0.00000000       0.00000000       0.00000000
C       21.82532077      13.71948471       1.41568835       0.00000000       0.00000000       0.00000000
C        1.82903216       2.31781835       1.26950326       0.00000000       0.00000000       0.00000000
C       17.97883099      15.03971130      17.83507492       0.00000000       0.00000000       0.00000000
C        2.55684593      18.04961520       1.58197146       0.00000000       0.00000000       0.00000000
C        1.87430276      22.87087507      21.83787941       0.00000000       0.00000000       0.00000000
C       13.14403193       4.38028464       3.59119284       0.00000000       0.00000000       0.00000000
C       13.45688797      16.96685612       4.96567389       0.00000000       0.00000000       0.00000000
C       17.43983923       7.69755289      21.82242568       0.00000000       0.00000000       0.00000000
C        7.54539885      14.69794303       2.65532771       0.00000000       0.00000000       0.00000000
C       14.08021055       9.61352921       5.09190692       0.00000000       0.00000000       0.00000000
C        4.75150002       9.20101070      19.49771314       0.00000000       0.00000000       0.00000000
C       19.92348408       5.17338655       0.81189725       0.00000000       0.00000000       0.00000000
C        2.94249087      13.27359193      20.00752310       0.00000000       0.00000000       0.00000000
C       15.12391112       0.16307204       3.40626075       0.00000000       0.00000000       0.00000000
C       14.50628605      17.68343957       1.83400105       0.00000000       0.00000000       0.00000000
C       10.50388685      18.16938090       6.01163685       0.00000000       0.00000000       0.00000000
C        7.68045115      22.71975265      21.80576760       0.00000000       0.00000000       0.00000000
C        2.84031248       9.92058819       5.05442054       0.00000000       0.00000000       0.00000000
C        7.58668249       2.30444365       1.23672479       0.00000000       0.00000000       0.00000000
C       10.63451928       2.30527744      20.35550796       0.00000000       0.00000000       0.00000000
C       11.30525635       4.33350179      22.21602263       0.00000000       0.00000000       0.00000000
C       16.96566628       3.93087823      22.40350829       0.00000000       0.00000000       0.00000000
C       11.23124494      18.67783605       3.07586930       0.00000000       0.00000000       0.00000000
C       18.93628731       2.17637003       1.36665834       0.00000000       0.00000000       0.00000000
C        4.63111741      13.52597296       1.33765856       0.00000000       0.00000000       0.00000000
C       21.66586888      16.17392051       3.54173977       0.00000000       0.00000000       0.00000000
C       11.31487374      22.25968427      17.69296740       0.00000000       0.00000000       0.00000000
C       13.07050778       6.61207034       5.77128795       0.00000000       0.00000000       0.00000000
C        5.67454679       1.93089839      19.73159268       0.00000000       0.00000000       0.00000000
C        9.54031206      18.37934573      21.58206815       0.00000000       0.00000000       0.00000000
C        0.62972860      17.38086539      20.31292413       0.00000000       0.00000000       0.00000000
C       21.79557960       3.32812516       2.61487293       0.00000000       0.00000000       0.00000000
C        5.87421474      21.72018484      17.72726505       0.00000000       0.00000000       0.00000000
C        9.04441975       2.45310697      20.69217881       0.00000000       0.00000000       0.00000000
C       12.31951447       1.25707167       4.37910413       0.00000000       0.00000000       0.00000000
C       12.44003308      19.62328730      22.87208482       0.00000000       0.00000000       0.00000000
C        5.70584999      10.93444260       6.32530284       0.00000000       0.00000000       0.00000000
C       14.46248460      15.39492150      22.43224616       0.00000000       0.00000000       0.00000000
C        1.85983820       7.83507446      18.36373558       0.00000000       0.00000000       0.00000000
C       22.76263455       3.98140392      22.41169693       0.00000000       0.00000000       0.00000000
C        9.43057121       2.50522095       5.37989108       0.00000000       0.00000000       0.00000000
C       19.77389054      17.99359407       1.72400038       0.00000000       0.00000000       0.00000000
C       10.33601333       9.06982100      19.51608592       0.00000000       0.00000000       0.00000000
C       10.99501475      10.82835897       6.04978878       0.00000000       0.00000000       0.00000000
C       14.26921982      11.37799195      18.32093863       0.00000000       0.00000000       0.00000000
C       14.28089150       0.55210037      18.83553757       0.00000000       0.00000000       0.00000000
C       10.48659958       0.77668984       0.19842378       0.00000000       0.00000000       0.00000000
C        4.57187442      15.96399153       3.47425896       0.00000000       0.00000000       0.00000000
C        0.85739228      15.14537027      18.13305179       0.00000000       0.00000000       0.00000000
C       15.98602805      11.47431054      21.99614949       0.00000000       0.00000000       0.00000000
C        8.17457433       9.77372333       4.99510614       0.00000000       0.00000000       0.00000000
C        9.38743909      12.75722249       4.31675823       0.00000000       0.00000000       0.00000000
C        6.49552229      19.63771595      22.56799052       0.00000000       0.00000000       0.00000000
C        5.06892379       4.77361594       4.29082024       0.00000000       0.00000000       0.00000000
C        8.40824609      20.14950250       3.94767839       0.00000000       0.00000000       0.00000000
C       20.96010702      21.02637900       0.74003399       0.00000000       0.00000000       0.00000000
C       11.12913564       8.53199011       3.84569719       0.00000000       0.00000000       0.00000000
C        1.01743619      22.25599962       1.90333401       0.00000000       0.00000000       0.00000000
C       16.99616253       6.22023266       1.72128491       0.00000000       0.00000000       0.00000000
C       17.96686520      21.90492601       2.09385741       0.00000000       0.00000000       0.00000000
C       16.00967649       6.57772639      17.64271979       0.00000000       0.00000000       0.00000000
C       22.61356448      14.64191870      21.11233313       0.00000000       0.00000000       0.00000000
C       17.13994732       1.64529223      20.24412215       0.00000000       0.00000000       0.00000000
C        3.62481600      10.50523864       1.88954122       0.00000000       0.00000000       0.00000000
C       17.11187493      14.39517339      20.98254790       0.00000000       0.00000000       0.00000000
C       15.11240684      10.47107361       2.06168101       0.00000000       0.00000000       0.00000000
C        7.84611311       4.57734480       3.18515191       0.00000000       0.00000000       0.00000000
C       22.80168968      10.89083299       6.08877196       0.00000000       0.00000000       0.00000000
C        5.60643506       4.28759946      22.05398171       0.00000000       0.00000000       0.00000000
C       10.11236563      13.50810900       1.36040410       0.00000000       0.00000000       0.00000000
C       17.03477977      21.39203177       5.29984777       0.00000000       0.00000000       0.00000000
C        9.48363431       0.16408713       3.03127744       0.00000000       0.00000000       0.00000000
C        1.80161971      20.35869702      19.59572649       0.00000000       0.00000000       0.00000000
C       21.90277476      11.29413315      21.79514142       0.00000000       0.00000000       0.00000000
C       21.92321823      21.65195349      20.63222744       0.00000000       0.00000000       0.00000000
C        7.51579052      10.22641749      20.76306126       0.00000000       0.00000000       0.00000000
C        5.64684261       6.44236862       1.46961854       0.00000000       0.00000000       0.00000000
C       20.08541577      13.21700184      19.82869514       0.00000000       0.00000000       0.00000000
C        9.53775364      20.80712870       0.86123923       0.00000000       0.00000000       0.00000000
C       18.77607339      14.78791328       2.37404300       0.00000000       0.00000000       0.00000000
C       16.17959289      21.57909123      20.94836861       0.00000000       0.00000000       0.00000000
C        1.43239385      15.09641147       2.47502926       0.00000000       0.00000000       0.00000000
C        6.79099147      13.94424862       5.50682136       0.00000000       0.00000000       0.00000000
C       17.68101442       4.63964059      19.48348791       0.00000000       0.00000000       0.00000000
C        4.56022365      21.45849711      20.64596682       0.00000000       0.00000000       0.00000000
C       15.75112930       9.38644379      19.63208215       0.00000000       0.00000000       0.00000000
C       10.18353970       5.54843141       4.58605440       0.00000000       0.00000000       0.00000000
C       20.66275406       2.78423831       5.51153710       0.00000000       0.00000000       0.00000000
C        3.75067226       0.44381878       3.08287187       0.00000000       0.00000000       0.00000000
C        5.76614336      16.66842161       0.63724069       0.00000000       0.00000000       0.00000000
C       20.87463945       8.10927952      22.65744336       0.00000000       0.00000000       0.00000000
C       12.39711402      21.92446643       2.20185346       0.00000000       0.00000000       0.00000000
C        1.72939525      12.47401091       0.10044767       0.00000000       0.00000000       0.00000000
C        0.74841145       9.46588974       0.68710696       0.00000000       0.00000000       0.00000000
C        0.00371220      22.38511634      17.72892343       0.00000000       0.00000000       0.00000000
C        5.30215028      22.89210313      17.63299274       0.00000000       0.00000000       0.00000000
C        3.51715217      20.91146250       0.82235218       0.00000000       0.00000000       0.00000000
C       10.41398721      15.76571926       3.64615641       0.00000000       0.00000000       0.00000000
C        9.37299497      16.14350664      19.30677195       0.00000000       0.00000000       0.00000000
C       21.72579755      19.21605118      18.41121993       0.00000000       0.00000000       0.00000000
C        5.46666967       8.72949081       3.75665585       0.00000000       0.00000000       0.00000000
C       17.97941636      14.13389810       5.64162326       0.00000000       0.00000000       0.00000000
C       20.88848056       3.35346998      18.01063833       0.00000000       0.00000000       0.00000000
C       15.16792629       2.46299429       5.65918741       0.00000000       0.00000000       0.00000000
C       12.10704343       9.55072973       1.03912694       0.00000000       0.00000000       0.00000000
C        3.79421224       6.00652084      20.30225607       0.00000000       0.00000000       0.00000000
C        2.59900075       0.02401082       6.17089648       0.00000000       0.00000000       0.00000000
C        3.87964969       4.04395665      17.93330796       0.00000000       0.00000000       0.00000000
C        6.54324661      17.35970330      20.38643063       0.00000000       0.00000000       0.00000000
C        7.66880423      20.34426719      19.63701825       0.00000000       0.00000000       0.00000000
C        9.46052653       3.83494477      17.99026073       0.00000000       0.00000000       0.00000000
C       13.27320582       1.96736232       1.24938376       0.00000000       0.00000000       0.00000000
C       19.88849772      20.23593228       4.16093873       0.00000000       0.00000000       0.00000000
C       21.85048048       5.77111984       4.49963044       0.00000000       0.00000000       0.00000000
C        8.39289618       5.36430351       0.19186889       0.00000000       0.00000000       0.00000000
C        6.44972473      11.77433815       3.05666009       0.00000000       0.00000000       0.00000000
C        4.71213916      18.04578826       5.54067918       0.00000000       0.00000000       0.00000000
C       21.79567886       8.92105769      19.61010476       0.00000000       0.00000000       0.00000000
C        4.55439873       3.54785639       1.99353171       0.00000000       0.00000000       0.00000000
C       18.44092863       7.74435304      18.56518885       0.00000000       0.00000000       0.00000000
C       18.67618459       4.44257689       3.81272473       0.00000000       0.00000000       0.00000000
C       22.59584591      16.84725466       0.44396195       0.00000000       0.00000000       0.00000000
C       14.11554076       7.54057707       2.75305280       0.00000000       0.00000000       0.00000000
C       15.18988399      16.29891382      19.27850485       0.00000000       0.00000000       0.00000000
C       21.04177190      10.80452134       1.93932558       0.00000000       0.00000000       0.00000000
C       10.46270582      21.36429736      20.71915148       0.00000000       0.00000000       0.00000000
C        2.95863696      11.00243206      17.68785432       0.00000000       0.00000000       0.00000000
Hf      12.16158643       6.48405882       3.63732390       0.00000000       0.00000000       0.00000000
Hf      18.95911169      15.27639280      19.81005664       0.00000000       0.00000000       0.00000000
Hf       6.37227691       8.79145506       6.19687489       0.00000000       0.00000000       0.00000000
Hf      17.94563142       6.73469245       3.75167632       0.00000000       0.00000000       0.00000000
Hf       1.08796791       6.66969323       3.61924237       0.00000000       0.00000000       0.00000000
Hf       3.71317816      13.43223605      22.16323835       0.00000000       0.00000000       0.00000000
Hf       9.43647549       2.69554457       0.33756773       0.00000000       0.00000000       0.00000000
Hf       2.46974762      13.06539831       2.05668057       0.00000000       0.00000000       0.00000000
Hf       3.39960344       1.27429978      20.97040391       0.00000000       0.00000000       0.00000000
Hf       6.64265256       6.79165487       3.57086563       0.00000000       0.00000000       0.00000000
Hf      11.30558075       3.25215764       4.60311742       0.00000000       0.00000000       0.00000000
Hf      11.46428464      19.29335555      21.03989522       0.00000000       0.00000000       0.00000000
Hf      17.72021671       9.92717301      18.50831061       0.00000000       0.00000000       0.00000000
Hf      19.63909904      22.81746910       1.16432368       0.00000000       0.00000000       0.00000000
Hf       9.48199302       5.57408051       2.14334632       0.00000000       0.00000000       0.00000000
Hf       4.01850258      20.05603276       5.48141823       0.00000000       0.00000000       0.00000000
Hf      14.97408671       5.35745613       2.54254692       0.00000000       0.00000000       0.00000000
Hf      10.47136944      16.24150142      21.34837788       0.00000000       0.00000000       0.00000000
Hf      12.67377900      16.77915878       2.84874364       0.00000000       0.00000000       0.00000000
Hf      21.58741975       0.83263483       5.70734420       0.00000000       0.00000000       0.00000000
Hf       5.62391152       7.24138360      19.24864755       0.00000000       0.00000000       0.00000000
Hf      14.07846372       4.67014556       5.64382130       0.00000000       0.00000000       0.00000000
Hf      20.66607001       8.81563095      17.55834230       0.00000000       0.00000000       0.00000000
Hf      20.42848670      20.94656401      18.35335202       0.00000000       0.00000000       0.00000000
Hf      15.80261532      10.70283163       4.15904967       0.00000000       0.00000000       0.00000000
Hf      15.24087478      18.29122681       3.94446821       0.00000000       0.00000000       0.00000000
Hf       0.61185145      19.87139178       4.55730797       0.00000000       0.00000000       0.00000000
Hf       1.27408253       9.83793322      18.71949125       0.00000000       0.00000000       0.00000000
Hf      16.97930523       1.12898970       2.50186838       0.00000000       0.00000000       0.00000000
Hf      10.44939256      18.66194717       0.84506601       0.00000000       0.00000000       0.00000000
Hf       3.70586295      16.10023506       1.31107194       0.00000000       0.00000000       0.00000000
Hf      12.26251741       1.74317996      22.11694065       0.00000000       0.00000000       0.00000000
Hf      12.10354292      22.15429973      19.71071964       0.00000000       0.00000000       0.00000000
Hf       0.53754498      14.84411749       0.38954319       0.00000000       0.00000000       0.00000000
Hf      12.15086182      10.17863202      18.99177506       0.00000000       0.00000000       0.00000000
Hf      11.61313545      16.00012153       5.71580752       0.00000000       0.00000000       0.00000000
Hf       5.54179864      17.25111082      18.27797987       0.00000000       0.00000000       0.00000000
Hf      18.36554696      12.44995520      20.74939400       0.00000000       0.00000000       0.00000000
Hf      13.10887742       9.42867600       3.04917732       0.00000000       0.00000000       0.00000000
Hf      18.90304240      17.74686605      22.21078924       0.00000000       0.00000000       0.00000000
Hf       7.55365010      20.03143265       1.72623599       0.00000000       0.00000000       0.00000000
Hf      22.06354030       8.33075195       1.83741623       0.00000000       0.00000000       0.00000000
Hf       0.87600068      22.47504038      19.93671759       0.00000000       0.00000000       0.00000000
Hf      16.24751116       8.63470791       1.73814128       0.00000000       0.00000000       0.00000000
Hf      15.79920318       5.89481637      22.60041895       0.00000000       0.00000000       0.00000000
Hf       7.56468867      17.52759988      22.44985936       0.00000000       0.00000000       0.00000000
Hf      17.98411068      19.35915552       5.25535101       0.00000000       0.00000000       0.00000000
Hf       9.99615246      10.59947349       4.11498301       0.00000000       0.00000000       0.00000000
Hf       4.56456689       4.01207845      20.08690730       0.00000000       0.00000000       0.00000000
Hf      15.26671262      21.28180598      18.81393134       0.00000000       0.00000000       0.00000000
Hf      19.99126042      10.25776639      22.65854441       0.00000000       0.00000000       0.00000000
Hf       0.39323106      17.21350961       2.56548326       0.00000000       0.00000000       0.00000000
Hf       4.80680373      16.59301672      21.43602796       0.00000000       0.00000000       0.00000000
Hf      10.46535144      20.89458772       2.95855279       0.00000000       0.00000000       0.00000000
Hf      11.58036422      13.58917355       3.79844394       0.00000000       0.00000000       0.00000000
Hf      22.84732204       7.03677540      19.41369288       0.00000000       0.00000000       0.00000000
Hf       6.67573540       4.30449772       1.35733879       0.00000000       0.00000000       0.00000000
Hf      14.38254645      20.53846588      21.80894214       0.00000000       0.00000000       0.00000000
Hf      20.75464376       3.20782633       0.70865413       0.00000000       0.00000000       0.00000000
Hf      20.42276842       5.09568061       2.98881657       0.00000000       0.00000000       0.00000000
Hf      17.62339047      11.55675442       1.31090963       0.00000000       0.00000000       0.00000000
Nb       5.48301659      19.45488350      20.67799498       0.00000000       0.00000000       0.00000000
Nb       4.00136033      11.16426759      19.82352127       0.00000000       0.00000000       0.00000000
Nb       2.99422716       2.48512296       3.54925283       0.00000000       0.00000000       0.00000000
Nb      16.95499240       3.60623976       4.60614518       0.00000000       0.00000000       0.00000000
Nb      19.22385630       5.69829986      18.61108176       0.00000000       0.00000000       0.00000000
Nb      15.16367759       2.96231692       0.47246271       0.00000000       0.00000000       0.00000000
Nb       0.87820413       2.11159002      21.89245493       0.00000000       0.00000000       0.00000000
Nb      15.27687004       7.81191308       4.61020202       0.00000000       0.00000000       0.00000000
Nb      19.06908646       7.19237358       0.87637203       0.00000000       0.00000000       0.00000000
Nb      19.06121583       4.80080400      21.81228248       0.00000000       0.00000000       0.00000000
Nb      22.76365821       9.07007860      21.59101329       0.00000000       0.00000000       0.00000000
Nb      16.59052127       9.62457132      21.57574742       0.00000000       0.00000000       0.00000000
Nb      16.17344543      14.16522254      18.87473115       0.00000000       0.00000000       0.00000000
Nb      21.64448108      16.53297939      21.07566904       0.00000000       0.00000000       0.00000000
Nb       1.58340221      20.10258899       1.53504533       0.00000000       0.00000000       0.00000000
Nb       7.58393384      22.12515289       3.92783995       0.00000000       0.00000000       0.00000000
Nb      12.26607568       3.99865320       1.17281829       0.00000000       0.00000000       0.00000000
Nb      13.43832598      19.91255855       1.92658784       0.00000000       0.00000000       0.00000000
Nb       6.67004511      18.99306736       4.60987947       0.00000000       0.00000000       0.00000000
Nb       4.73795272      18.78408064       0.47721727       0.00000000       0.00000000       0.00000000
Nb      22.47071402      16.22627993       5.40538737       0.00000000       0.00000000       0.00000000
Nb       9.55389388      17.76238828       3.98065237       0.00000000       0.00000000       0.00000000
Nb       3.80888538       3.26920498       0.20482966       0.00000000       0.00000000       0.00000000
Nb      18.11393686       8.63801780       6.22411780       0.00000000       0.00000000       0.00000000
Nb      22.60049980      19.52438840      20.35149921       0.00000000       0.00000000       0.00000000
Nb       8.38743303       6.05406846      18.12038349       0.00000000       0.00000000       0.00000000
Nb      17.89220980      16.85934355       2.51411113       0.00000000       0.00000000       0.00000000
Nb       9.42791195      20.19804993       5.99579097       0.00000000       0.00000000       0.00000000
Nb      19.26183398      12.98787973      17.71650890       0.00000000       0.00000000       0.00000000
Nb      20.62958293      18.28977463       3.91709597       0.00000000       0.00000000       0.00000000
Nb       8.63784557      14.81929363       4.38473205       0.00000000       0.00000000       0.00000000
Nb       1.67167897      15.50365904      20.35492182       0.00000000       0.00000000       0.00000000
Nb      17.83565212       4.24932130       1.60976682       0.00000000       0.00000000       0.00000000
Nb      22.82869987      22.06406272      22.54649941       0.00000000       0.00000000       0.00000000
Nb      14.10978090      10.43513265       0.25796734       0.00000000       0.00000000       0.00000000
Nb       3.76356284      21.31594251      18.71861104       0.00000000       0.00000000       0.00000000
Nb      18.87237730      19.81376998       1.98695108       0.00000000       0.00000000       0.00000000
Nb       4.75931019      13.16963116       6.35965003       0.00000000       0.00000000       0.00000000
Nb      19.63245673       4.59508367       5.90976700       0.00000000       0.00000000       0.00000000
Nb      21.62132610       5.91004262      22.45958295       0.00000000       0.00000000       0.00000000
Nb      10.43220225       0.26875332       5.15671787       0.00000000       0.00000000       0.00000000
Nb      12.03138205       8.50395358       5.79862249       0.00000000       0.00000000       0.00000000
Nb      13.16427346      22.07521370       4.24188936       0.00000000       0.00000000       0.00000000
Nb       8.43393762       8.11702404      20.36475797       0.00000000       0.00000000       0.00000000
Nb       5.40938223       9.15958439      21.55973911       0.00000000       0.00000000       0.00000000
Nb      11.51297197       0.96273412       2.38692415       0.00000000       0.00000000       0.00000000
Nb      19.54596230       2.47352091       3.53224413       0.00000000       0.00000000       0.00000000
Nb       3.49629398      18.22284799       3.50308994       0.00000000       0.00000000       0.00000000
Nb       5.34874641      11.46760857       0.93462080       0.00000000       0.00000000       0.00000000
Nb       7.20003458       5.36767904      20.96575638       0.00000000       0.00000000       0.00000000
Nb      20.11405492      20.99024602      21.57094150       0.00000000       0.00000000       0.00000000
Nb      13.10044755       7.38044329       0.83050466       0.00000000       0.00000000       0.00000000
Ta       2.61100012      15.45433236       4.20243572       0.00000000       0.00000000       0.00000000
Ta      16.56260111       1.21905501      18.25633949       0.00000000       0.00000000       0.00000000
Ta       9.57464693      15.67336142       1.56897348       0.00000000       0.00000000       0.00000000
Ta      20.81546336       0.81741072      20.90544821       0.00000000       0.00000000       0.00000000
Ta      20.79786488      20.57114067       6.06684232       0.00000000       0.00000000       0.00000000
Ta       9.46378924      21.10578128      18.56694026       0.00000000       0.00000000       0.00000000
Ta      13.61822851      17.21946772      22.78878794       0.00000000       0.00000000       0.00000000
Ta      12.04579615      12.38126953      21.20393230       0.00000000       0.00000000       0.00000000
Ta      22.66758713      13.87425958       3.51528265       0.00000000       0.00000000       0.00000000
Ta      13.12552511      13.21336415      18.26377177       0.00000000       0.00000000       0.00000000
Ta       4.41990840      21.42116564       2.81162391       0.00000000       0.00000000       0.00000000
Ta      17.03994109      16.09469172       5.47778640       0.00000000       0.00000000       0.00000000
Ta      19.68750074      18.25910589      18.98681172       0.00000000       0.00000000       0.00000000
Ta      10.21575456       8.54928966       1.73200564       0.00000000       0.00000000       0.00000000
Ta       7.54135159      13.22745038      17.94194624       0.00000000       0.00000000       0.00000000
Ta       8.31628603      12.53279124       2.20630190       0.00000000       0.00000000       0.00000000
Ta      16.98456333      21.54423842       0.20023646       0.00000000       0.00000000       0.00000000
Ta       7.76499651      12.10313931       5.61430738       0.00000000       0.00000000       0.00000000
Ta      18.13804203       1.98710401      22.19032697       0.00000000       0.00000000       0.00000000
Ta       8.22156215       4.79833989       5.16645277       0.00000000       0.00000000       0.00000000
Ta      18.18075094      22.29790730      20.09964807       0.00000000       0.00000000       0.00000000
Ta       7.38299604       7.42977620       0.39387465       0.00000000       0.00000000       0.00000000
Ta       2.99183983       6.07378178      17.85826477       0.00000000       0.00000000       0.00000000
Ta       4.71088581       1.96206695      17.76065891       0.00000000       0.00000000       0.00000000
Ta      11.68545922      21.68108455       0.20928913       0.00000000       0.00000000       0.00000000
Ta      10.98448143      11.57376665       1.01174239       0.00000000       0.00000000       0.00000000
Ta      14.75062860       9.30907403      17.75852088       0.00000000       0.00000000       0.00000000
Ta       2.16690085       3.26754030      18.80816667       0.00000000       0.00000000       0.00000000
Ta      14.95110481       0.78022924      20.88923446       0.00000000       0.00000000       0.00000000
Ta       7.73469149       1.43112904       6.15056217       0.00000000       0.00000000       0.00000000
Ta      20.14087585      12.66999745       2.40166326       0.00000000       0.00000000       0.00000000
Ta      17.93265074      14.69405592       0.07902599       0.00000000       0.00000000       0.00000000
Ta       8.09266907      10.10482856      22.87141196       0.00000000       0.00000000       0.00000000
Ta      19.52083615       9.75275898       3.15653401       0.00000000       0.00000000       0.00000000
Ta       1.27243455      17.89032060      22.39625247       0.00000000       0.00000000       0.00000000
Ta       2.44300273      18.22701500      19.51540763       0.00000000       0.00000000       0.00000000
Ta       7.53356662      15.05748705      20.28017366       0.00000000       0.00000000       0.00000000
Ta      14.25108916      12.78402296       2.19843641       0.00000000       0.00000000       0.00000000
Ta       3.62495805       7.92657308       4.59636638       0.00000000       0.00000000       0.00000000
Ta      22.02488216       1.45495547      18.00761107       0.00000000       0.00000000       0.00000000
Ta       4.68807972      14.30178519      19.02921146       0.00000000       0.00000000       0.00000000
Ta      13.98490690       8.22598933      20.66604799       0.00000000       0.00000000       0.00000000
Ta      22.16703858      21.67281267       2.40544308       0.00000000       0.00000000       0.00000000
Ta       5.26843678      13.51288285       3.26606230       0.00000000       0.00000000       0.00000000
Ta      11.40273018      17.26036280      18.33310340       0.00000000       0.00000000       0.00000000
Ta       0.90193911      11.77238348      21.21662755       0.00000000       0.00000000       0.00000000
Ta      14.43930566      14.91364281       4.73214058       0.00000000       0.00000000       0.00000000
Ta      13.13911582       2.99327737      19.04264082       0.00000000       0.00000000       0.00000000
Ta       7.27827373       9.62201112       2.95155847       0.00000000       0.00000000       0.00000000
Ta      16.18460702       3.55767653      20.33978536       0.00000000       0.00000000       0.00000000
Ta       6.65928449      10.02844413      18.35856572       0.00000000       0.00000000       0.00000000
Ta      22.59105776       5.98137126       6.38766246       0.00000000       0.00000000       0.00000000
Ta      16.22845456      16.32322467      21.17196823       0.00000000       0.00000000       0.00000000
Ta       0.07948029       1.50466877       2.20184736       0.00000000       0.00000000       0.00000000
Ta      14.29177124      22.89099111       1.34471747       0.00000000       0.00000000       0.00000000
Ta       9.43488882       0.33912440      20.83407584       0.00000000       0.00000000       0.00000000
Ta       2.70169932      20.46946459      21.72292758       0.00000000       0.00000000       0.00000000
Ta       1.53686970       4.91707449      21.42204992       0.00000000       0.00000000       0.00000000
Ta      11.28024461       9.21988273      21.98465781       0.00000000       0.00000000       0.00000000
Ta      11.40000381       6.92268509      19.12855659       0.00000000       0.00000000       0.00000000
Ta       6.41380864      12.13864021      21.19513258       0.00000000       0.00000000       0.00000000
Ti       1.74012604      22.80966408       4.01476058       0.00000000       0.00000000       0.00000000
Ti      16.06719400       0.39271061       5.42950916       0.00000000       0.00000000       0.00000000
Ti      16.70269157       6.84375369      19.71220429       0.00000000       0.00000000       0.00000000
Ti       2.63012888       4.87723324       5.61376838       0.00000000       0.00000000       0.00000000
Ti       0.60372745      18.98296092       5.35544887       0.00000000       0.00000000       0.00000000
Ti       4.74569336       6.22094576      22.35335793       0.00000000       0.00000000       0.00000000
Ti      21.20855124      21.76043229      18.76201988       0.00000000       0.00000000       0.00000000
Ti       6.53772947      16.79752069       2.74401637       0.00000000       0.00000000       0.00000000
Ti       8.65362874      22.78438246       0.86310493       0.00000000       0.00000000       0.00000000
Ti       9.51305942       3.61739764      22.47882709       0.00000000       0.00000000       0.00000000
Ti      15.55083776      15.56882511       1.69834088       0.00000000       0.00000000       0.00000000
Ti       5.72029703       3.05437736       4.97785556       0.00000000       0.00000000       0.00000000
Ti      22.85074381      11.62679219       1.16478049       0.00000000       0.00000000       0.00000000
Ti       5.80366099      15.82622644       5.57936968       0.00000000       0.00000000       0.00000000
Ti       2.07706788      11.86623290       5.28235502       0.00000000       0.00000000       0.00000000
Ti      21.91462736       6.45415475      18.90605513       0.00000000       0.00000000       0.00000000
Ti      10.25995704       4.31590499      19.92572002       0.00000000       0.00000000       0.00000000
Ti      20.99618605      13.38834859      21.89024882       0.00000000       0.00000000       0.00000000
Ti      17.09891958      13.83785372       3.44337613       0.00000000       0.00000000       0.00000000
Ti       9.41854407      11.22827334      19.93745130       0.00000000       0.00000000       0.00000000
Ti      21.78353233      14.29458099      19.04018890       0.00000000       0.00000000       0.00000000
Ti       8.98850142      13.19766553      22.15962178       0.00000000       0.00000000       0.00000000
Ti       8.69305484       2.49440078       3.12447864       0.00000000       0.00000000       0.00000000
Ti       2.93052043      10.34576942       0.01987729       0.00000000       0.00000000       0.00000000
Ti      22.22323823       1.07423635       4.73622969       0.00000000       0.00000000       0.00000000
Ti       4.65729932       8.32285941       1.50016228       0.00000000       0.00000000       0.00000000
Ti      20.93279269       7.66716123       4.79034765       0.00000000       0.00000000       0.00000000
Ti      15.32634770      11.76812305      19.86601454       0.00000000       0.00000000       0.00000000
Ti       9.16219645       7.63752052       4.76944598       0.00000000       0.00000000       0.00000000
Ti      16.25813168      18.64113315       0.58238258       0.00000000       0.00000000       0.00000000
Ti       3.90528593       5.56852043       2.42183339       0.00000000       0.00000000       0.00000000
Ti      15.29027036      13.57270440      22.25949465       0.00000000       0.00000000       0.00000000
Ti       6.55516011      22.24123131      19.77185847       0.00000000       0.00000000       0.00000000
Ti       6.77047036      20.00230657      17.75198556       0.00000000       0.00000000       0.00000000
Ti       4.01220670       0.56000478      20.26381495       0.00000000       0.00000000       0.00000000
Ti      10.04040295       6.35136729      22.25225506       0.00000000       0.00000000       0.00000000
Zr       0.08744858       3.79684027       4.60229747       0.00000000       0.00000000       0.00000000
Zr       0.89105053      12.91190747      20.74276196       0.00000000       0.00000000       0.00000000
Zr      13.17667537      11.62799071       5.50474530       0.00000000       0.00000000       0.00000000
Zr      13.18616374       5.27016847      21.40079538       0.00000000       0.00000000       0.00000000
Zr       5.67968807       1.50161048       2.20130063       0.00000000       0.00000000       0.00000000
Zr      13.92324361      18.41874786      19.45394170       0.00000000       0.00000000       0.00000000
Zr       0.98743844       4.47542346       1.53382038       0.00000000       0.00000000       0.00000000
Zr      19.96479909      15.20262620       4.66338607       0.00000000       0.00000000       0.00000000
Zr       1.08948835       8.96517482       5.94692220       0.00000000       0.00000000       0.00000000
Zr      12.26347755      14.32460029       0.69084518       0.00000000       0.00000000       0.00000000
Zr      14.06600347       2.35909942       3.46669689       0.00000000       0.00000000       0.00000000
Zr      21.80297064      18.95995371       0.42942153       0.00000000       0.00000000       0.00000000
Zr       2.80481905       8.06744985      20.55146525       0.00000000       0.00000000       0.00000000
Zr       6.59805174      14.39232170       0.66639885       0.00000000       0.00000000       0.00000000
Zr      13.31971080      15.24797278      20.42706568       0.00000000       0.00000000       0.00000000
Zr      15.07171918      20.42266759       6.18164222       0.00000000       0.00000000       0.00000000
Zr      18.94307168      11.99545943       5.35606112       0.00000000       0.00000000       0.00000000
Zr       7.64134890       2.87380570      18.98627193       0.00000000       0.00000000       0.00000000
Zr      16.89758649      17.29786595      17.96225983       0.00000000       0.00000000       0.00000000
Zr      15.84141552      20.97750959       3.26598462       0.00000000       0.00000000       0.00000000
Zr       4.62562644      10.84982718       4.31350762       0.00000000       0.00000000       0.00000000
Zr      12.43146350      19.14836149       5.32176590       0.00000000       0.00000000       0.00000000
Zr       8.48022336      18.15085752      19.47070205       0.00000000       0.00000000       0.00000000
Zr      18.95877513      22.21622227       4.42579646       0.00000000       0.00000000       0.00000000
Zr      21.93218874      10.57739355       4.24126211       0.00000000       0.00000000       0.00000000
Zr       2.64554009       0.19552417       1.03102187       0.00000000       0.00000000       0.00000000
Zr      20.50082822      15.93321626       1.45143180       0.00000000       0.00000000       0.00000000
Zr       5.44260754      21.81448137      22.65071182       0.00000000       0.00000000       0.00000000
Zr       4.54150882       0.63049714       5.26166385       0.00000000       0.00000000       0.00000000
Zr      14.11543901       5.82311816      18.40562035       0.00000000       0.00000000       0.00000000
Zr      21.74165880      12.87472491       6.38055768       0.00000000       0.00000000       0.00000000
Zr       2.18077003      13.09444415      17.80008066       0.00000000       0.00000000       0.00000000
Zr      22.57718760      17.12416657      17.94230041       0.00000000       0.00000000       0.00000000
Zr      21.85450102       3.60090512      20.40339464       0.00000000       0.00000000       0.00000000
Zr      10.42935330       1.62985329      17.86198668       0.00000000       0.00000000       0.00000000
Zr      21.15065295      10.92317689      19.44149219       0.00000000       0.00000000       0.00000000
Zr       1.97195923       7.47633882       0.33065744       0.00000000       0.00000000       0.00000000
Zr      19.59878579       7.95878419      20.47996622       0.00000000       0.00000000       0.00000000
Zr       8.62116973      20.64702970      21.59397910       0.00000000       0.00000000       0.00000000
Zr       6.72521109       2.27440798      21.88066705       0.00000000       0.00000000       0.00000000
Zr      16.85049020      19.19884419      20.56034210       0.00000000       0.00000000       0.00000000
Zr      19.05789739       2.42405879      19.07973687       0.00000000       0.00000000       0.00000000
Zr       9.99565217      14.01473939      19.25843602       0.00000000       0.00000000       0.00000000
Zr       1.65137890       9.82237918       2.75793425       0.00000000       0.00000000       0.00000000
C       10.41958824      10.30174032      12.46116400       0.00000000       0.00000000       0.00000000
C       21.19111937      12.59681692      14.85752955       0.00000000       0.00000000       0.00000000
C        5.74033717      18.49701870      17.23198438       0.00000000       0.00000000       0.00000000
C       22.37327062      11.42576814      12.80142692       0.00000000       0.00000000       0.00000000
C       18.00787510      19.84005964       8.37153050       0.00000000       0.00000000       0.00000000
C       15.03127619      21.74833510      13.14789253       0.00000000       0.00000000       0.00000000
C       22.89848218      16.98401581      15.45332390       0.00000000       0.00000000       0.00000000
C       21.09365664      22.24661322       7.22076759       0.00000000       0.00000000       0.00000000
C       10.02137245       3.32633419      14.50253241       0.00000000       0.00000000       0.00000000
C        6.97119207      18.28398601      10.95801123       0.00000000       0.00000000       0.00000000
C       22.75317436       8.51292581      16.66743162       0.00000000       0.00000000       0.00000000
C        1.77973949      15.22655203      10.69110607       0.00000000       0.00000000       0.00000000
C        2.29857113      17.52921964       6.79657908       0.00000000       0.00000000       0.00000000
C       17.31109024      10.48476557      13.98190239       0.00000000       0.00000000       0.00000000
C       16.23139590      12.86546552       8.35402655       0.00000000       0.00000000       0.00000000
C       19.01709609       5.74114670      15.75171129       0.00000000       0.00000000       0.00000000
C        3.20205242      20.03534853       6.38803977       0.00000000       0.00000000       0.00000000
C       10.10171421       2.71366863       8.41313250       0.00000000       0.00000000       0.00000000
C        0.48471441      11.68141590      12.26482998       0.00000000       0.00000000       0.00000000
C       19.24068276      22.82848934      12.20471070       0.00000000       0.00000000       0.00000000
C        4.70424027       9.46171764      10.24539868       0.00000000       0.00000000       0.00000000
C        0.94957901       7.69845949       9.40392904       0.00000000       0.00000000       0.00000000
C       12.64738274      12.91114084      16.49316119       0.00000000       0.00000000       0.00000000
C        8.13280043       1.87089043       7.50791633       0.00000000       0.00000000       0.00000000
C       16.72214352      20.97383098      15.75309320       0.00000000       0.00000000       0.00000000
C       21.07630326       8.06462985      13.99634346       0.00000000       0.00000000       0.00000000
C       16.10428598       2.36502318       9.60319501       0.00000000       0.00000000       0.00000000
C       18.73123935       0.95132994       9.31664309       0.00000000       0.00000000       0.00000000
C        8.51494664       1.12919613      16.45855536       0.00000000       0.00000000       0.00000000
Ti       4.25077652      15.64021727      11.28389734       0.00000000       0.00000000       0.00000000
Ti       9.18890920      19.33048211      11.87455357       0.00000000       0.00000000       0.00000000
C       18.37243597       3.12717626      11.42982413       0.00000000       0.00000000       0.00000000
C       14.99247881      10.01879930       6.60524274       0.00000000       0.00000000       0.00000000
C        0.67216053       0.38345967      10.18581130       0.00000000       0.00000000       0.00000000
C       12.97091461       7.72146638       6.94855190       0.00000000       0.00000000       0.00000000
C        4.06976159       3.87761254      14.08837626       0.00000000       0.00000000       0.00000000
C        7.90792953       5.01119584       9.28162725       0.00000000       0.00000000       0.00000000
C       22.55335364       1.61156789      15.62357469       0.00000000       0.00000000       0.00000000
C        5.92656872       9.92809248       7.13993171       0.00000000       0.00000000       0.00000000
C       12.27372830      17.11593896      12.11441749       0.00000000       0.00000000       0.00000000
C        4.46362615       6.98776323       8.85201558       0.00000000       0.00000000       0.00000000
C        6.94424303      17.59456884       7.36732953       0.00000000       0.00000000       0.00000000
C       22.42020218       8.52201727       8.96497167       0.00000000       0.00000000       0.00000000
C        3.86654504       0.56740678      14.08196849       0.00000000       0.00000000       0.00000000
C        9.89448130      20.03215903       7.92174605       0.00000000       0.00000000       0.00000000
C        1.20111903       2.45480752      14.15288545       0.00000000       0.00000000       0.00000000
C       19.99470987      16.82996613      16.45664743       0.00000000       0.00000000       0.00000000
C        6.65881328       4.11437818      12.92622950       0.00000000       0.00000000       0.00000000
C        9.31176123      16.18930600      13.51875996       0.00000000       0.00000000       0.00000000
C       11.17412621       2.69172509       9.10879049       0.00000000       0.00000000       0.00000000
C       19.04520171      15.99501938       7.23784919       0.00000000       0.00000000       0.00000000
C       21.40233968       8.90531828       9.93137455       0.00000000       0.00000000       0.00000000
C       22.65004549      15.23948064      12.71733325       0.00000000       0.00000000       0.00000000
C       12.53580027      14.54977254      12.58684471       0.00000000       0.00000000       0.00000000
C        5.10665547      13.62736975      10.48680085       0.00000000       0.00000000       0.00000000
C        5.66753011       9.52161899      15.00019366       0.00000000       0.00000000       0.00000000
C       20.26746182      19.81421023      15.84316904       0.00000000       0.00000000       0.00000000
C        9.50516069      11.87797617      14.64096213       0.00000000       0.00000000       0.00000000
C        9.83402636      20.67581993       9.18843054       0.00000000       0.00000000       0.00000000
C        5.02797551       0.39726235       9.71110344       0.00000000       0.00000000       0.00000000
C       16.98774270       9.25505231       9.59362183       0.00000000       0.00000000       0.00000000
C       21.67810825       0.39263653      11.57907859       0.00000000       0.00000000       0.00000000
C        4.13727412       1.28023487       9.44560653       0.00000000       0.00000000       0.00000000
C       16.78039425       4.88664425      12.96521579       0.00000000       0.00000000       0.00000000
C       21.10507269       6.64051338       7.16848494       0.00000000       0.00000000       0.00000000
C       22.27501151      11.06950228      11.57332490       0.00000000       0.00000000       0.00000000
C       11.37073211      17.40341052       6.53475703       0.00000000       0.00000000       0.00000000
C        8.26066341      11.10542795      10.78132982       0.00000000       0.00000000       0.00000000
C       13.13863642      18.94876847       8.58975936       0.00000000       0.00000000       0.00000000
C       15.57344538      15.17077830      15.07806069       0.00000000       0.00000000       0.00000000
C        7.71971421       8.19798270      13.70374983       0.00000000       0.00000000       0.00000000
C        6.89097378      15.63046395      17.11169893       0.00000000       0.00000000       0.00000000
C       11.90805166      21.50516427      11.62477869       0.00000000       0.00000000       0.00000000
C       18.38991890       7.49049122      11.95850204       0.00000000       0.00000000       0.00000000
C        6.78694510       3.91857009      10.17370539       0.00000000       0.00000000       0.00000000
C       20.16107603      16.46473864      10.00321035       0.00000000       0.00000000       0.00000000
C       20.54436204      20.39523607      14.48175577       0.00000000       0.00000000       0.00000000
C       16.01850142       9.96266232      10.39648472       0.00000000       0.00000000       0.00000000
C       11.03157578       5.84994183       8.52757041       0.00000000       0.00000000       0.00000000
C       22.03535375      18.97426780       7.11471312       0.00000000       0.00000000       0.00000000
C       22.72273839      16.09105748       7.96721122       0.00000000       0.00000000       0.00000000
C       17.61103523       6.14783578      15.94209944       0.00000000       0.00000000       0.00000000
C        5.61506877      22.33771977      16.38529953       0.00000000       0.00000000       0.00000000
C       22.05864048       3.58963194      13.29529036       0.00000000       0.00000000       0.00000000
C       16.75568878      16.25943133       9.42644946       0.00000000       0.00000000       0.00000000
C       16.37134182      19.83864695      10.26499458       0.00000000       0.00000000       0.00000000
C        7.44646247       1.74967591      11.89411139       0.00000000       0.00000000       0.00000000
C        3.84302655       0.12201255      12.38933342       0.00000000       0.00000000       0.00000000
C        6.41237012      11.80950219      12.46790860       0.00000000       0.00000000       0.00000000
C        1.55653778      22.81724111      11.49891494       0.00000000       0.00000000       0.00000000
C       12.28322819      21.47476594       7.06303007       0.00000000       0.00000000       0.00000000
C       18.93462119      17.85471908       6.82293758       0.00000000       0.00000000       0.00000000
C       14.32970365      19.10728363      16.04736427       0.00000000       0.00000000       0.00000000
C        3.73280513      18.01570428      14.42581046       0.00000000       0.00000000       0.00000000
C        8.44562173       1.08835923      11.74930979       0.00000000       0.00000000       0.00000000
C        1.68751691       4.90039227      17.07824734       0.00000000       0.00000000       0.00000000
C       12.98177191      18.30264877      15.72150491       0.00000000       0.00000000       0.00000000
C       16.96072408      21.58803237      13.84568937       0.00000000       0.00000000       0.00000000
C       19.13629661       7.41544492       8.39564174       0.00000000       0.00000000       0.00000000
C       19.48429727      16.81879218      14.98941529       0.00000000       0.00000000       0.00000000
C       12.48164194      16.13296628      13.16080187       0.00000000       0.00000000       0.00000000
C       14.34542693       9.81954146      10.15037777       0.00000000       0.00000000       0.00000000
C        7.91471618       7.50755306      10.85832104       0.00000000       0.00000000       0.00000000
C        2.23711676      11.13617647      12.09169289       0.00000000       0.00000000       0.00000000
C       18.79359600      11.96677323      11.20431211       0.00000000       0.00000000       0.00000000
C        8.46218716      18.42764451      14.90523107       0.00000000       0.00000000       0.00000000
C        3.31851202       6.87727708      11.95388392       0.00000000       0.00000000       0.00000000
C        3.70793919      12.67211468      14.84700738       0.00000000       0.00000000       0.00000000
C       11.10984986       7.34766403      10.16212000       0.00000000       0.00000000       0.00000000
C       13.99970571       4.68486522       9.93277326       0.00000000       0.00000000       0.00000000
C        3.41285838       6.51406278       8.23526697       0.00000000       0.00000000       0.00000000
C        9.19136558      13.09759949       8.02948065       0.00000000       0.00000000       0.00000000
C        1.55240690      21.30745930      14.95468232       0.00000000       0.00000000       0.00000000
C        8.78200207      17.27153589      14.19869853       0.00000000       0.00000000       0.00000000
C       10.48391902       4.96907126      12.18520725       0.00000000       0.00000000       0.00000000
C       10.77771043      13.55908543       8.80543312       0.00000000       0.00000000       0.00000000
C       14.92927951       9.66443859      14.33037863       0.00000000       0.00000000       0.00000000
C       12.34659889      18.11708141      11.15794041       0.00000000       0.00000000       0.00000000
C        0.62210335       7.70433018       7.78066381       0.00000000       0.00000000       0.00000000
C        2.00121293      13.23083147       8.05462501       0.00000000       0.00000000       0.00000000
C        2.52853463      12.23762473       7.55240179       0.00000000       0.00000000       0.00000000
C        0.32925570       6.78141279      14.33709799       0.00000000       0.00000000       0.00000000
C       19.27087275       6.60856417      12.25419842       0.00000000       0.00000000       0.00000000
C        0.67808562       5.92051987      10.20771339       0.00000000       0.00000000       0.00000000
C        0.41033798      14.46159569      14.35098065       0.00000000       0.00000000       0.00000000
C        6.95414719      21.31149348      14.50853672       0.00000000       0.00000000       0.00000000
C       16.29985517       5.76974590       9.41302141       0.00000000       0.00000000       0.00000000
C        3.43087529      22.23025757       9.01363893       0.00000000       0.00000000       0.00000000
C        3.80496305      20.88300128      12.33362496       0.00000000       0.00000000       0.00000000
C       17.11917576      16.59869271      13.19134739       0.00000000       0.00000000       0.00000000
C        3.71708992      15.33452496      15.45650937       0.00000000       0.00000000       0.00000000
C       10.74490964      14.46476780       9.92177788       0.00000000       0.00000000       0.00000000
C       11.45251422      11.45251422      11.96281572       0.00000000       0.00000000       0.00000000
C       13.53573814      22.60230976       9.50464666       0.00000000       0.00000000       0.00000000
C       10.51612541      21.52859675      14.47444476       0.00000000       0.00000000       0.00000000
C       14.27486059       1.81260482      15.06164225       0.00000000       0.00000000       0.00000000
C       10.74597402       5.73418862       7.21947675       0.00000000       0.00000000       0.00000000
C        4.14007303       6.82177711      15.91340681       0.00000000       0.00000000       0.00000000
C       12.10970658       8.40840982      16.63542530       0.00000000       0.00000000       0.00000000
C       15.64907783      16.09680089      13.97212180       0.00000000       0.00000000       0.00000000
C       14.04374800      14.94102295       8.07073289       0.00000000       0.00000000       0.00000000
C       17.32539124      16.55887689      16.33693388       0.00000000       0.00000000       0.00000000
C        4.31708828      21.95511491      11.81580799       0.00000000       0.00000000       0.00000000
C       18.73178533      13.53830267      13.87239789       0.00000000       0.00000000       0.00000000
C       20.04887949      15.26661345      10.60394174       0.00000000       0.00000000       0.00000000
C        5.99097006      20.70153203       7.83142772       0.00000000       0.00000000       0.00000000
C       21.70097341      20.71891888      11.77773380       0.00000000       0.00000000       0.00000000
C        5.95166727       8.40360000      14.07403223       0.00000000       0.00000000       0.00000000
C       18.87900313      10.18175643       8.42914699       0.00000000       0.00000000       0.00000000
C       17.88624572       4.36366320       6.54668813       0.00000000       0.00000000       0.00000000
C       16.84307939      20.63965178       8.93268545       0.00000000       0.00000000       0.00000000
C        1.91695190       9.25400780      17.11247891       0.00000000       0.00000000       0.00000000
C       11.64731016      13.40533079      17.24594709       0.00000000       0.00000000       0.00000000
C       13.86459925       2.24410448       7.10738115       0.00000000       0.00000000       0.00000000
C       17.44658378      18.18318134      16.38358537       0.00000000       0.00000000       0.00000000
C       16.42398994       1.78859187      16.24092285       0.00000000       0.00000000       0.00000000
C        0.07709110      16.93819387      16.79712134       0.00000000       0.00000000       0.00000000
C       20.32561999       1.58347379      14.91902423       0.00000000       0.00000000       0.00000000
C        9.86376627       4.29136099      15.54717338       0.00000000       0.00000000       0.00000000
C       13.42393591      14.78990560       6.86113459       0.00000000       0.00000000       0.00000000
C       21.87286776      12.18858189      16.06583279       0.00000000       0.00000000       0.00000000
C       11.48825707       2.06630287      10.35110673       0.00000000       0.00000000       0.00000000
C       22.37063889       5.19847538      16.13362871       0.00000000       0.00000000       0.00000000
C       11.60038259       8.93855396      15.35729467       0.00000000       0.00000000       0.00000000
C       15.93300849      10.56180874      13.56578234       0.00000000       0.00000000       0.00000000
C        2.73663012       4.49548063      13.81280161       0.00000000       0.00000000       0.00000000
C        7.85724709      18.91774643      11.72816035       0.00000000       0.00000000       0.00000000
C        3.59962507       3.67857127       7.78226094       0.00000000       0.00000000       0.00000000
C        7.79566209       7.28733374      15.13386826       0.00000000       0.00000000       0.00000000
C       15.86096943       1.64298097      11.00612755       0.00000000       0.00000000       0.00000000
C       18.79241598       4.06042365      17.13363992       0.00000000       0.00000000       0.00000000
C       22.69486888      15.95937160      16.47827196       0.00000000       0.00000000       0.00000000
C       21.39363549       3.80227774       7.17881667       0.00000000       0.00000000       0.00000000
Hf      13.53944596      22.64587461      14.01701814       0.00000000       0.00000000       0.00000000
Hf      15.15305635       8.84712988      12.36292645       0.00000000       0.00000000       0.00000000
Hf       4.38946214      11.24462734      13.62892120       0.00000000       0.00000000       0.00000000
Hf       5.06701997      12.93157229       7.92901542       0.00000000       0.00000000       0.00000000
Hf       0.10683366      17.50737340       7.31344991       0.00000000       0.00000000       0.00000000
Hf      14.99359497       5.80684562      17.19542897       0.00000000       0.00000000       0.00000000
Hf       0.82156152      20.44683738      17.36268563       0.00000000       0.00000000       0.00000000
Hf      13.16166700      10.65407708      16.07999889       0.00000000       0.00000000       0.00000000
Hf       2.02251984       2.39276857       9.31349474       0.00000000       0.00000000       0.00000000
Hf      14.24108765      11.49911213       8.03855995       0.00000000       0.00000000       0.00000000
Hf      13.86533988      20.57238428      11.40620481       0.00000000       0.00000000       0.00000000
Hf       9.54279673       8.37790282      11.51911148       0.00000000       0.00000000       0.00000000
Hf      10.08004804       9.37568243      16.76504670       0.00000000       0.00000000       0.00000000
Hf      21.20350378       6.40947130       9.16569739       0.00000000       0.00000000       0.00000000
Hf      10.37032863       6.64050592      13.97128926       0.00000000       0.00000000       0.00000000
Hf       3.27095721       5.77585715      10.42356329       0.00000000       0.00000000       0.00000000
Hf      21.83489172       1.24873442       6.80168117       0.00000000       0.00000000       0.00000000
Hf      18.18118869      19.43617161      15.01428505       0.00000000       0.00000000       0.00000000
Hf      16.75017872       4.02038102      14.82598855       0.00000000       0.00000000       0.00000000
Hf      16.33548147      18.09012822      11.64776019       0.00000000       0.00000000       0.00000000
Hf       4.24904662      18.11143145      11.88793344       0.00000000       0.00000000       0.00000000
Hf      14.20594687      17.26307974       7.65268306       0.00000000       0.00000000       0.00000000
Hf      20.54561198      16.88500985      12.28016333       0.00000000       0.00000000       0.00000000
Hf       6.47224435       9.13758216      11.90600577       0.00000000       0.00000000       0.00000000
Hf      10.08838988      13.87420479      14.07831580       0.00000000       0.00000000       0.00000000
Hf       9.48352567      15.92424815      11.26984508       0.00000000       0.00000000       0.00000000
Hf       5.84696866       3.28245732       7.96872660       0.00000000       0.00000000       0.00000000
Hf      11.88440012       0.42021381      15.25243664       0.00000000       0.00000000       0.00000000
Hf       4.49329572      11.33868373      10.77552742       0.00000000       0.00000000       0.00000000
Hf      11.39566418      20.52887664      16.22677318       0.00000000       0.00000000       0.00000000
Nb       2.38610868      20.13926697      13.77135629       0.00000000       0.00000000       0.00000000
Nb      19.15078681       8.65493007       9.67493827       0.00000000       0.00000000       0.00000000
Nb       3.59639047       9.05815364      15.42706261       0.00000000       0.00000000       0.00000000
Nb       6.64506188       0.44842559      16.39806466       0.00000000       0.00000000       0.00000000
Nb       3.37534073      22.15928705       6.80304000       0.00000000       0.00000000       0.00000000
Nb      16.83270281      17.26996650       6.53712000       0.00000000       0.00000000       0.00000000
Nb       7.04702577      13.34330010      10.32817923       0.00000000       0.00000000       0.00000000
Nb      21.22151627       3.55288403      15.07103075       0.00000000       0.00000000       0.00000000
Nb       8.47358020      20.08963341      13.90253539       0.00000000       0.00000000       0.00000000
Nb      17.32446710       5.16846027      11.11131751       0.00000000       0.00000000       0.00000000
Nb      10.12031333      22.03052431      12.16591318       0.00000000       0.00000000       0.00000000
Nb      21.66588266      10.62475239      14.81611182       0.00000000       0.00000000       0.00000000
Nb      15.09883483      15.02016169       9.88347428       0.00000000       0.00000000       0.00000000
Nb      17.07924283      14.53863741       7.81575437       0.00000000       0.00000000       0.00000000
Nb       4.18370238       6.19294288      13.69499939       0.00000000       0.00000000       0.00000000
Nb      20.10621927      12.40898979      12.92564433       0.00000000       0.00000000       0.00000000
Nb      10.13614635      15.94405792      17.41178620       0.00000000       0.00000000       0.00000000
Nb       7.46381717       5.35010062      14.14597317       0.00000000       0.00000000       0.00000000
Nb       8.11729320      15.40335101      15.44125166       0.00000000       0.00000000       0.00000000
Nb       2.08853117      11.71290178      16.72181161       0.00000000       0.00000000       0.00000000
Nb      12.77072566      12.74605924      10.15731560       0.00000000       0.00000000       0.00000000
Nb       1.54414999      12.70846760      10.85514687       0.00000000       0.00000000       0.00000000
Nb      12.29842199       9.44208554      12.98444774       0.00000000       0.00000000       0.00000000
Nb      11.41375247      22.89044306       8.24746336       0.00000000       0.00000000       0.00000000
Nb       5.54427468      18.81292540      15.25458648       0.00000000       0.00000000       0.00000000
Nb      22.08589621       4.48761125      11.18505584       0.00000000       0.00000000       0.00000000
Nb      19.25714466       2.67818087       8.10284762       0.00000000       0.00000000       0.00000000
Nb      20.31551990       2.25887563      11.95998628       0.00000000       0.00000000       0.00000000
Nb      13.48631739       3.15947939      16.25150758       0.00000000       0.00000000       0.00000000
Nb       8.33769956       9.73907903      14.60812411       0.00000000       0.00000000       0.00000000
Nb       8.10673657       3.19140248      16.18298797       0.00000000       0.00000000       0.00000000
Nb      15.40970334      19.49486457       8.28836928       0.00000000       0.00000000       0.00000000
Nb      18.90941781      11.60729278      15.17667085       0.00000000       0.00000000       0.00000000
Nb       7.36288584      17.38609391      17.25456571       0.00000000       0.00000000       0.00000000
Nb      11.26925530      14.99585530       7.74831715       0.00000000       0.00000000       0.00000000
Nb       1.05485946       3.00832526      16.56396009       0.00000000       0.00000000       0.00000000
Nb       1.59641531      12.31767888      14.12111503       0.00000000       0.00000000       0.00000000
Nb       6.90991302      10.40330978      16.47805702       0.00000000       0.00000000       0.00000000
Ta       6.99173102      21.58673819      11.55079451       0.00000000       0.00000000       0.00000000
Ta       4.18832373      20.73148570       9.95613440       0.00000000       0.00000000       0.00000000
Ta       6.33096349       7.47723423      16.44891181       0.00000000       0.00000000       0.00000000
Ta      11.28998950      18.32987109       8.24526464       0.00000000       0.00000000       0.00000000
Ta      19.11394272       1.65768267      16.20361637       0.00000000       0.00000000       0.00000000
Ta       4.52999722      13.87619006      12.65642490       0.00000000       0.00000000       0.00000000
Ta       1.93847406      19.65976842       7.89209021       0.00000000       0.00000000       0.00000000
Ta      20.46440193      20.38410609       7.27038047       0.00000000       0.00000000       0.00000000
Ta      15.07624808      20.13620421      14.05647266       0.00000000       0.00000000       0.00000000
Ta      11.38845374      11.71307986       7.03136506       0.00000000       0.00000000       0.00000000
Ta       5.45835205      16.10511437      14.70148017       0.00000000       0.00000000       0.00000000
Ta      21.23370655       6.11182729      13.26594556       0.00000000       0.00000000       0.00000000
Ta      14.34519385       0.35191672      16.86581453       0.00000000       0.00000000       0.00000000
Ta       0.21816968       9.48191224      15.98339774       0.00000000       0.00000000       0.00000000
Ta      12.05156866       4.38013485      11.00387398       0.00000000       0.00000000       0.00000000
Ta      22.40132462      15.72967967      10.00656784       0.00000000       0.00000000       0.00000000
Ta      11.40427767       6.43127021      17.07706868       0.00000000       0.00000000       0.00000000
Ta      12.59906800       9.54642990      10.60208413       0.00000000       0.00000000       0.00000000
Ta       2.71303878       8.21131674      10.77236090       0.00000000       0.00000000       0.00000000
Ta       5.98367497       2.47345581      13.93320477       0.00000000       0.00000000       0.00000000
Ta      17.79149276       1.01778461      11.26031182       0.00000000       0.00000000       0.00000000
Ta      17.17432967      12.59976125      12.87004801       0.00000000       0.00000000       0.00000000
Ta       4.75768379      17.01408731       7.47899766       0.00000000       0.00000000       0.00000000
Ta      17.80209791      21.04728372      11.99496726       0.00000000       0.00000000       0.00000000
Ta      19.89647053      19.70412428      12.21486921       0.00000000       0.00000000       0.00000000
Ta       7.01639872       0.19909548       8.52296847       0.00000000       0.00000000       0.00000000
Ta      18.06522166      15.31219035      14.69735453       0.00000000       0.00000000       0.00000000
Ta       9.52110831       5.99776277      10.36024429       0.00000000       0.00000000       0.00000000
Ta      15.35025302       3.93188507       8.56233339       0.00000000       0.00000000       0.00000000
Ta      17.50139255      11.50920643       9.77121559       0.00000000       0.00000000       0.00000000
Ta      18.04264130      14.76823473      11.03519066       0.00000000       0.00000000       0.00000000
Ta       2.27440343      22.80769801      13.60378110       0.00000000       0.00000000       0.00000000
Ta      20.96782683      17.13668847       7.48902834       0.00000000       0.00000000       0.00000000
Ta      13.89454629       7.70940374      14.99635180       0.00000000       0.00000000       0.00000000
Ta      16.26055604       0.69165750      14.40168356       0.00000000       0.00000000       0.00000000
Ta       8.29608961       2.59712111       9.72879401       0.00000000       0.00000000       0.00000000
Ti       9.21103062      15.95850952       6.90785183       0.00000000       0.00000000       0.00000000
Ti       2.53491729      16.32747520      14.34189768       0.00000000       0.00000000       0.00000000
Ti       1.90216959      21.11592044      11.16940437       0.00000000       0.00000000       0.00000000
Ti       6.44894759      16.01991557      10.48966508       0.00000000       0.00000000       0.00000000
Ti      13.01084188       6.33704732       9.10017184       0.00000000       0.00000000       0.00000000
Ti       8.61823095      11.40748063      12.52425325       0.00000000       0.00000000       0.00000000
Ti      16.88257479       0.47154800       8.54542309       0.00000000       0.00000000       0.00000000
Ti       1.12413603       9.38591003      13.05158928       0.00000000       0.00000000       0.00000000
Ti      14.21532703      15.21142092      13.58259950       0.00000000       0.00000000       0.00000000
Ti       6.27275051       5.41783685      11.69848989       0.00000000       0.00000000       0.00000000
Ti       3.31166405      21.74602305      16.59627818       0.00000000       0.00000000       0.00000000
Ti       1.33029218       9.68107130       8.35662619       0.00000000       0.00000000       0.00000000
Ti       2.87070054       2.13454877      12.53587335       0.00000000       0.00000000       0.00000000
Ti       8.05101044       1.09118605      14.51211378       0.00000000       0.00000000       0.00000000
Ti      10.02430874      12.87703481      10.80982615       0.00000000       0.00000000       0.00000000
Ti       1.97824835      14.76274213      16.36105293       0.00000000       0.00000000       0.00000000
Ti      15.37054186      16.22906572      17.12990343       0.00000000       0.00000000       0.00000000
Ti      10.87244112      19.34539073      10.86772238       0.00000000       0.00000000       0.00000000
Ti      14.19889336      12.05035454      12.29853195       0.00000000       0.00000000       0.00000000
Ti       6.41565100      22.80586195       7.36141142       0.00000000       0.00000000       0.00000000
Ti      16.87875193       9.00006890      17.16626354       0.00000000       0.00000000       0.00000000
Ti       8.92258456      12.13145789      16.79037756       0.00000000       0.00000000       0.00000000
Ti       2.48682474       7.46190233       6.86369760       0.00000000       0.00000000       0.00000000
Ti      13.76885263      20.72802488       7.32131327       0.00000000       0.00000000       0.00000000
Ti       7.62028152      21.88726702      16.23921832       0.00000000       0.00000000       0.00000000
Ti      17.57603508       6.17904661       7.93657484       0.00000000       0.00000000       0.00000000
Ti       0.94800001       4.80913437      14.30171946       0.00000000       0.00000000       0.00000000
Ti       2.32467329      18.65009436      15.90310832       0.00000000       0.00000000       0.00000000
Zr       0.58010708       4.27005861      11.20591614       0.00000000       0.00000000       0.00000000
Zr       3.38519978      15.09601766       9.33581944       0.00000000       0.00000000       0.00000000
Zr      15.14287010       8.71224023       8.54747154       0.00000000       0.00000000       0.00000000
Zr       0.80685962       5.24278145       8.06649636       0.00000000       0.00000000       0.00000000
Zr      13.13287644       1.40495509       9.00943757       0.00000000       0.00000000       0.00000000
Zr      21.53113913      14.35968620       6.78348952       0.00000000       0.00000000       0.00000000
Zr       1.57494966       7.06648971      17.43551550       0.00000000       0.00000000       0.00000000
Zr       8.08448626      20.00191210       8.54883449       0.00000000       0.00000000       0.00000000
Zr      10.84466279      17.37298611      14.31240444       0.00000000       0.00000000       0.00000000
Zr       5.38172942       2.71913454      11.00464090       0.00000000       0.00000000       0.00000000
Zr      20.80905037       9.00363115      12.09690658       0.00000000       0.00000000       0.00000000
Zr       0.42319518      14.87239282       8.97561359       0.00000000       0.00000000       0.00000000
Zr      21.18720886      15.20104294      14.81814516       0.00000000       0.00000000       0.00000000
Zr       0.64656301      17.85916649      11.58084544       0.00000000       0.00000000       0.00000000
Zr       2.57523013       0.45929728      17.02728504       0.00000000       0.00000000       0.00000000
Zr      17.07801282      21.05556544       6.59439996       0.00000000       0.00000000       0.00000000
Zr      11.20508305       2.69906885       6.62818052       0.00000000       0.00000000       0.00000000
Zr       5.12087010      13.21195040      15.87877020       0.00000000       0.00000000       0.00000000
Zr      14.66264021       3.04758918      12.33430849       0.00000000       0.00000000       0.00000000
Zr       1.15772869       0.28592070      13.28177415       0.00000000       0.00000000       0.00000000
Zr      13.10252267      15.64596833      15.48750414       0.00000000       0.00000000       0.00000000
Zr      21.45936476      18.33902573      14.27261796       0.00000000       0.00000000       0.00000000
Zr       4.64548572      21.74430847      14.14448977       0.00000000       0.00000000       0.00000000
Zr      22.42422368      21.22756023      13.66905365       0.00000000       0.00000000       0.00000000
Zr      12.58945542      16.00157533      10.03684093       0.00000000       0.00000000       0.00000000
Zr      12.13688659      19.70585021      13.58633895       0.00000000       0.00000000       0.00000000
Zr      18.51350162       7.41885392      14.19954386       0.00000000       0.00000000       0.00000000
Zr      10.56942968       8.80542024       8.46659819       0.00000000       0.00000000       0.00000000
Zr       0.31374193      22.00704983       8.53565251       0.00000000       0.00000000       0.00000000
Zr      19.10329692      22.40261645      15.11431761       0.00000000       0.00000000       0.00000000
Zr      20.84723912       9.03090505       7.05253286       0.00000000       0.00000000       0.00000000
Zr      15.13693697      13.09675021      15.79472018       0.00000000       0.00000000       0.00000000
Zr      20.84909091       7.23114237      16.09438486       0.00000000       0.00000000       0.00000000
Zr      18.44263067      17.87583421       9.24176770       0.00000000       0.00000000       0.00000000
Zr      20.48956871      11.66996127       9.85890343       0.00000000       0.00000000       0.00000000
Zr       7.05867630      10.26586834       8.90712493       0.00000000       0.00000000       0.00000000
Zr       9.62021220       3.29555561      12.76552519       0.00000000       0.00000000       0.00000000
Zr       7.17546150       6.96082494       8.63280086       0.00000000       0.00000000       0.00000000
857
Lattice="22.90502845 0.0 0.0 0.0 22.90502845 0.0 0.0 0.0 22.90502845" Properties=species:S:1:pos:R:3:momenta:R:3 pbc="T T T"
C       19.99091443       7.48617555       2.86350752       0.00000000       0.00000000       0.00000000
C       11.46315026      16.56397962       0.69789535       0.00000000       0.00000000       0.00000000
C       16.99037656       8.75457361       3.95163046       0.00000000       0.00000000       0.00000000
C       15.16672280      12.91510818       4.44274133       0.00000000       0.00000000       0.00000000
C        2.60505458       1.05013721      18.73378403       0.00000000       0.00000000       0.00000000
C        3.57142143      15.14947627       6.24932261       0.00000000       0.00000000       0.00000000
C        9.25308280      10.55652143       1.95930547       0.00000000       0.00000000       0.00000000
C       17.13109193      12.08420951      18.80218997       0.00000000       0.00000000       0.00000000
C       16.05670406      18.19742321       6.00195537       0.00000000       0.00000000       0.00000000
C        2.88403516       5.35524639       0.33030199       0.00000000       0.00000000       0.00000000
C        8.40823238       0.34285021      18.86187655       0.00000000       0.00000000       0.00000000
C       11.36838455       6.41494328       1.51453877       0.00000000       0.00000000       0.00000000
C        3.64576634      16.35692506      19.18692444       0.00000000       0.00000000       0.00000000
C       19.91749163      10.87731157      17.53796898       0.00000000       0.00000000       0.00000000
C        4.73594219      19.29158546      18.51482427       0.00000000       0.00000000       0.00000000
C        8.52453794      15.41469839      22.43995826       0.00000000       0.00000000       0.00000000
C       20.52488270       5.74761909      20.45507737       0.00000000       0.00000000       0.00000000
C        8.36369189       7.62884434       2.52385023       0.00000000       0.00000000       0.00000000
C        8.38938330       3.68486869      20.90537226       0.00000000       0.00000000       0.00000000
C        1.62186842      17.29954424       4.55477848       0.00000000       0.00000000       0.00000000
C       22.70390860      21.80386723       4.85310548       0.00000000       0.00000000       0.00000000
C       10.22477638      11.33893417      21.99111898       0.00000000       0.00000000       0.00000000
C        0.74986176      19.86080189      22.54548249       0.00000000       0.00000000       0.00000000
C       19.89564519       9.65960267       5.12173290       0.00000000       0.00000000       0.00000000
C       11.35483102      14.27093658      21.31701322       0.00000000       0.00000000       0.00000000
C        3.62895801      18.56467707      21.55064873       0.00000000       0.00000000       0.00000000
C        4.59907625      11.31322410      21.91794288       0.00000000       0.00000000       0.00000000
C       17.04828884      22.26537823      17.76757929       0.00000000       0.00000000       0.00000000
C       14.07652689      20.12025695       4.07387790       0.00000000       0.00000000       0.00000000
C       21.62132592      18.31918099       5.90534094       0.00000000       0.00000000       0.00000000
C       16.96633228      10.91550134       6.29912256       0.00000000       0.00000000       0.00000000
C       13.29576412      22.70535788      21.93612015       0.00000000       0.00000000       0.00000000
C       22.58453384      19.52239201       2.63055513       0.00000000       0.00000000       0.00000000
C       14.17232573      13.33580095      20.18300188       0.00000000       0.00000000       0.00000000
C        2.69978168       3.31114767      20.99578656       0.00000000       0.00000000       0.00000000
C        8.44219341      22.34425831       6.13225803       0.00000000       0.00000000       0.00000000
C        3.58555694      12.83335509       4.18189330       0.00000000       0.00000000       0.00000000
C       16.19523186      13.56747496       1.34605098       0.00000000       0.00000000       0.00000000
C        6.80482391       1.34449610       4.26614956       0.00000000       0.00000000       0.00000000
C        1.77180446       6.73596249       5.79221549       0.00000000       0.00000000       0.00000000
C       13.30345419      12.47835097       0.22107473       0.00000000       0.00000000       0.00000000
C        7.54132770      16.82376223       4.77362192       0.00000000       0.00000000       0.00000000
C        3.72928363       8.25033970      22.49143787       0.00000000       0.00000000       0.00000000
C        9.20598859       8.34547810      22.57312080       0.00000000       0.00000000       0.00000000
C       11.48761215       1.25169482      19.97776978       0.00000000       0.00000000       0.00000000
C        6.52442705       5.02994090      19.06038177       0.00000000       0.00000000       0.00000000
C       11.27864275      12.19944927      19.01955435       0.00000000       0.00000000       0.00000000
C       16.04336497       0.97592458       0.26576141       0.00000000       0.00000000       0.00000000
C        4.71776280       1.22174449       0.06991577       0.00000000       0.00000000       0.00000000
C       22.00456558       1.05322743       0.09184330       0.00000000       0.00000000       0.00000000
C       18.75983735      20.38917273      19.51163941       0.00000000       0.00000000       0.00000000
C       12.24232392      17.26574206      20.45352638       0.00000000       0.00000000       0.00000000
C        0.02290726       8.63519843       3.75868847       0.00000000       0.00000000       0.00000000
C        6.56189864       7.39647796      21.24092649       0.00000000       0.00000000       0.00000000
C       15.23856364      20.67735924       0.93249987       0.00000000       0.00000000       0.00000000
C        5.13236982       3.60617958       3.18758578       0.00000000       0.00000000       0.00000000
C        8.22321963      13.03482950      20.05234064       0.00000000       0.00000000       0.00000000
C       20.94293913       0.47241290       3.11056296       0.00000000       0.00000000       0.00000000
C        0.18089761      12.01536067      18.82566266       0.00000000       0.00000000       0.00000000
C        0.84468461       4.90932191      19.21122368       0.00000000       0.00000000       0.00000000
C       11.41485272      21.21239396       5.16976831       0.00000000       0.00000000       0.00000000
C       19.15639047       6.81439221       5.82386787       0.00000000       0.00000000       0.00000000
C        5.46213115      19.12950805       2.75502960       0.00000000       0.00000000       0.00000000
C        4.48861538       5.98066503       4.58566985       0.00000000       0.00000000       0.00000000
C       15.08890253      18.37418571      21.64969251       0.00000000       0.00000000       0.00000000
C       18.28966361      11.70193006       3.24019781       0.00000000       0.00000000       0.00000000
C        7.38090626      12.37008379       0.20488420       0.00000000       0.00000000       0.00000000
C       14.17326432       2.88636831      21.22360866       0.00000000       0.00000000       0.00000000
C        7.31431545       6.77588680       5.72271815       0.00000000       0.00000000       0.00000000
C        5.63530150      12.16877965      18.85945602       0.00000000       0.00000000       0.00000000
C        6.61875962      15.17925668      18.20012402       0.00000000       0.00000000       0.00000000
C       20.85604040      12.98308516       4.31281854       0.00000000       0.00000000       0.00000000
C       10.35504228       3.18280180       2.33234901       0.00000000       0.00000000       0.00000000
C       19.47092735      10.42613181      20.31390509       0.00000000       0.00000000       0.00000000
C       12.19403402       7.32349634      21.53561612       0.00000000       0.00000000       0.00000000
C        3.68571886       2.84175759       5.54957569       0.00000000       0.00000000       0.00000000
C        0.05172649       6.43883092       1.48171989       0.00000000       0.00000000       0.00000000
C        6.43802788      22.02172711       2.04887716       0.00000000       0.00000000       0.00000000
C       16.15133902      15.78771652       3.70882099       0.00000000       0.00000000       0.00000000
C       19.90859577       2.85568121      21.35147526       0.00000000       0.00000000       0.00000000
C       19.76129387      15.58270769      22.14423217       0.00000000       0.00000000       0.00000000
C        9.35317310       6.19301306      20.19093347       0.00000000       0.00000000       0.00000000
C       17.97358235       6.51988867      21.75681640       0.00000000       0.00000000       0.00000000
C       13.36063634      14.67835012       2.75097361       0.00000000       0.00000000       0.00000000
C       13.11075401       8.08828676      18.54930920       0.00000000       0.00000000       0.00000000
C       16.14029207       5.64182297       4.73876153       0.00000000       0.00000000       0.00000000
C       18.10841492      17.44216280      20.15981702       0.00000000       0.00000000       0.00000000
C       19.14744075      12.42317008       0.06647133       0.00000000       0.00000000       0.00000000
C        0.86687320      11.93768831       3.06883401       0.00000000       0.00000000       0.00000000
C       14.99024180       3.61888881      18.37642108       0.00000000       0.00000000       0.00000000
C       18.96647626      22.85307658      21.93610847       0.00000000       0.00000000       0.00000000
C        2.62232749      15.60443219      22.30974560       0.00000000       0.00000000       0.00000000
C        2.85027922       7.68511578       2.62572683       0.00000000       0.00000000       0.00000000
C        2.66858682      20.37588894       3.78166774       0.00000000       0.00000000       0.00000000
C       20.83053970      18.72675916      21.22734945       0.00000000       0.00000000       0.00000000
C        2.00769097      10.15768655      20.79633739       0.00000000       0.00000000       0.00000000
C        7.58755432       8.07270130      18.35253430       0.00000000       0.00000000       0.00000000
C       12.11859161      15.17972756      18.15610366       0.00000000       0.00000000       0.00000000
C       13.25900610      20.44084319      19.70702900       0.00000000       0.00000000       0.00000000
C       14.08832606      22.52850909       6.31934477       0.00000000       0.00000000       0.00000000
C       16.04287446      19.32154874      18.34567730       0.00000000       0.00000000       0.00000000
C        1.09028200       1.81323120       4.32934158       0.00000000       0.00000000       0.00000000
C       19.99850345       0.55551434      19.01662354       0.00000000       0.00000000       0.00000000
C       10.43463031      19.21852028      18.44473361       0.00000000       0.00000000       0.00000000
C       18.41391625      10.02450050      20.86293766       0.00000000       0.00000000       0.00000000
C       13.91999239       5.04073378       0.59549293       0.00000000       0.00000000       0.00000000
C       18.77906869      17.24752113       4.72093709       0.00000000       0.00000000       0.00000000
C       17.12508392      18.97893874       2.84559589       0.00000000       0.00000000       0.00000000
C       12.43720378      13.85970775       5.75155751       0.00000000       0.00000000       0.00000000
C        5.67720314      14.32499333      21.21195103       0.00000000       0.00000000       0.00000000
C        6.30836451       9.41137930       0.84492821       0.00000000       0.00000000       0.00000000
C       22.84722523       1.60740663      20.08219639       0.00000000       0.00000000       0.00000000
C       15.01403161       6.19983058      20.51803702       0.00000000       0.00000000       0.00000000
C       18.24758247       9.53566841       0.95361362       0.00000000       0.00000000       0.00000000
C       16.01661897       3.27467922       2.46418516       0.00000000       0.00000000       0.00000000
C       17.81100767       1.37147443       4.52579418       0.00000000       0.00000000       0.00000000
C        8.39408436      11.07656542      17.56075304       0.00000000       0.00000000       0.00000000
C       17.98303245      19.67956568      22.72931367       0.00000000       0.00000000       0.00000000
C       12.25953859       4.88773688      19.28106721       0.00000000       0.00000000       0.00000000
C       12.31646096      11.65724428       3.15402928       0.00000000       0.00000000       0.00000000
C       14.86491235       8.37576521      22.70906705       0.00000000       0.00000000       0.00000000
C        0.80327527      14.09390050       5.39011828       0.00000000       0.00000000       0.00000000
C        8.59675302      17.70406780       1.78956821       0.00000000       0.00000000       0.00000000
C       20.87344928      16.28998804      19.09259031       0.00000000       0.00000000       0.00000000
C       17.09208393      16.63781697       0.37751647       0.00000000       0.00000000       0.00000000
C       12.92570260      10.21926990      21.09912093       0.00000000       0.00000000       0.00000000
C        2.00520349       4.62002591       3.66619243       0.00000000       0.00000000       0.00000000
C        0.62737969       7.03803577      21.57171868       0.00000000       0.00000000       0.00000000
C        5.62269585      21.37538794       4.83296093       0.00000000       0.00000000       0.00000000
C       21.82532077      13.71948471       1.41568835       0.00000000       0.00000000       0.00000000
C        1.82903216       2.31781835       1.26950326       0.00000000       0.00000000       0.00000000
C       17.97883099      15.03971130      17.83507492       0.00000000       0.00000000       0.00000000
C        2.55684593      18.04961520       1.58197146       0.00000000       0.00000000       0.00000000
C        1.87430276      22.87087507      21.83787941       0.00000000       0.00000000       0.00000000
C       13.14403193       4.38028464       3.59119284       0.00000000       0.00000000       0.00000000
C       13.45688797      16.96685612       4.96567389       0.00000000       0.00000000       0.00000000
C       17.43983923       7.69755289      21.82242568       0.00000000       0.00000000       0.00000000
C        7.54539885      14.69794303       2.65532771       0.00000000       0.00000000       0.00000000
C       14.08021055       9.61352921       5.09190692       0.00000000       0.00000000       0.00000000
C        4.75150002       9.20101070      19.49771314       0.00000000       0.00000000       0.00000000
C       19.92348408       5.17338655       0.81189725       0.00000000       0.00000000       0.00000000
C        2.94249087      13.27359193      20.00752310       0.00000000       0.00000000       0.00000000
C       15.12391112       0.16307204       3.40626075       0.00000000       0.00000000       0.00000000
C       14.50628605      17.68343957       1.83400105       0.00000000       0.00000000       0.00000000
C       10.50388685      18.16938090       6.01163685       0.00000000       0.00000000       0.00000000
C        7.68045115      22.71975265      21.80576760       0.00000000       0.00000000       0.00000000
C        2.84031248       9.92058819       5.05442054       0.00000000       0.00000000       0.00000000
C        7.58668249       2.30444365       1.23672479       0.00000000       0.00000000       0.00000000
C       10.63451928       2.30527744      20.35550796       0.00000000       0.00000000       0.00000000
C       11.30525635       4.33350179      22.21602263       0.00000000       0.00000000       0.00000000
C       16.96566628       3.93087823      22.40350829       0.00000000       0.00000000       0.00000000
C       11.23124494      18.67783605       3.07586930       0.00000000       0.00000000       0.00000000
C       18.93628731       2.17637003       1.36665834       0.00000000       0.00000000       0.00000000
C        4.63111741      13.52597296       1.33765856       0.00000000       0.00000000       0.00000000
C       21.66586888      16.17392051       3.54173977       0.00000000       0.00000000       0.00000000
C       11.31487374      22.25968427      17.69296740       0.00000000       0.00000000       0.00000000
C       13.07050778       6.61207034       5.77128795       0.00000000       0.00000000       0.00000000
C        5.67454679       1.93089839      19.73159268       0.00000000       0.00000000       0.00000000
C        9.54031206      18.37934573      21.58206815       0.00000000       0.00000000       0.00000000
C        0.62972860      17.38086539      20.31292413       0.00000000       0.00000000       0.00000000
C       21.79557960       3.32812516       2.61487293       0.00000000       0.00000000       0.00000000
C        5.87421474      21.72018484      17.72726505       0.00000000       0.00000000       0.00000000
C        9.04441975       2.45310697      20.69217881       0.00000000       0.00000000       0.00000000
C       12.31951447       1.25707167       4.37910413       0.00000000       0.00000000       0.00000000
C       12.44003308      19.62328730      22.87208482       0.00000000       0.00000000       0.00000000
C        5.70584999      10.93444260       6.32530284       0.00000000       0.00000000       0.00000000
C       14.46248460      15.39492150      22.43224616       0.00000000       0.00000000       0.00000000
C        1.85983820       7.83507446      18.36373558       0.00000000       0.00000000       0.00000000
C       22.76263455       3.98140392      22.41169693       0.00000000       0.00000000       0.00000000
C        9.43057121       2.50522095       5.37989108       0.00000000       0.00000000       0.00000000
C       19.77389054      17.99359407       1.72400038       0.00000000       0.00000000       0.00000000
C       10.33601333       9.06982100      19.51608592       0.00000000       0.00000000       0.00000000
C       10.99501475      10.82835897       6.04978878       0.00000000       0.00000000       0.00000000
C       14.26921982      11.37799195      18.32093863       0.00000000       0.00000000       0.00000000
C       14.28089150       0.55210037      18.83553757       0.00000000       0.00000000       0.00000000
C       10.48659958       0.77668984       0.19842378       0.00000000       0.00000000       0.00000000
C        4.57187442      15.96399153       3.47425896       0.00000000       0.00000000       0.00000000
C        0.85739228      15.14537027      18.13305179       0.00000000       0.00000000       0.00000000
C       15.98602805      11.47431054      21.99614949       0.00000000       0.00000000       0.00000000
C        8.17457433       9.77372333       4.99510614       0.00000000       0.00000000       0.00000000
C        9.38743909      12.75722249       4.31675823       0.00000000       0.00000000       0.00000000
C        6.49552229      19.63771595      22.56799052       0.00000000       0.00000000       0.00000000
C        5.06892379       4.77361594       4.29082024       0.00000000       0.00000000       0.00000000
C        8.40824609      20.14950250       3.94767839       0.00000000       0.00000000       0.00000000
C       20.96010702      21.02637900       0.74003399       0.00000000       0.00000000       0.00000000
C       11.12913564       8.53199011       3.84569719       0.00000000       0.00000000       0.00000000
C        1.01743619      22.25599962       1.90333401       0.00000000       0.00000000       0.00000000
C       16.99616253       6.22023266       1.72128491       0.00000000       0.00000000       0.00000000
C       17.96686520      21.90492601       2.09385741       0.00000000       0.00000000       0.00000000
C       16.00967649       6.57772639      17.64271979       0.00000000       0.00000000       0.00000000
C       22.61356448      14.64191870      21.11233313       0.00000000       0.00000000       0.00000000
C       17.13994732       1.64529223      20.24412215       0.00000000       0.00000000       0.00000000
C        3.62481600      10.50523864       1.88954122       0.00000000       0.00000000       0.00000000
C       17.11187493      14.39517339      20.98254790       0.00000000       0.00000000       0.00000000
C       15.11240684      10.47107361       2.06168101       0.00000000       0.00000000       0.00000000
C        7.84611311       4.57734480       3.18515191       0.00000000       0.00000000       0.00000000
C       22.80168968      10.89083299       6.08877196       0.00000000       0.00000000       0.00000000
C        5.60643506       4.28759946      22.05398171       0.00000000       0.00000000       0.00000000
C       10.11236563      13.50810900       1.36040410       0.00000000       0.00000000       0.00000000
C       17.03477977      21.39203177       5.29984777       0.00000000       0.00000000       0.00000000
C        9.48363431       0.16408713       3.03127744       0.00000000       0.00000000       0.00000000
C        1.80161971      20.35869702      19.59572649       0.00000000       0.00000000       0.00000000
C       21.90277476      11.29413315      21.79514142       0.00000000       0.00000000       0.00000000
C       21.92321823      21.65195349      20.63222744       0.00000000       0.00000000       0.00000000
C        7.51579052      10.22641749      20.76306126       0.00000000       0.00000000       0.00000000
C        5.64684261       6.44236862       1.46961854       0.00000000       0.00000000       0.00000000
C       20.08541577      13.21700184      19.82869514       0.00000000       0.00000000       0.00000000
C        9.53775364      20.80712870       0.86123923       0.00000000       0.00000000       0.00000000
C       18.77607339      14.78791328       2.37404300       0.00000000       0.00000000       0.00000000
C       16.17959289      21.57909123      20.94836861       0.00000000       0.00000000       0.00000000
C        1.43239385      15.09641147       2.47502926       0.00000000       0.00000000       0.00000000
C        6.79099147      13.94424862       5.50682136       0.00000000       0.00000000       0.00000000
C       17.68101442       4.63964059      19.48348791       0.00000000       0.00000000       0.00000000
C        4.56022365      21.45849711      20.64596682       0.00000000       0.00000000       0.00000000
C       15.75112930       9.38644379      19.63208215       0.00000000       0.00000000       0.00000000
C       10.18353970       5.54843141       4.58605440       0.00000000       0.00000000       0.00000000
C       20.66275406       2.78423831       5.51153710       0.00000000       0.00000000       0.00000000
C        3.75067226       0.44381878       3.08287187       0.00000000       0.00000000       0.00000000
C        5.76614336      16.66842161       0.63724069       0.00000000       0.00000000       0.00000000
C       20.87463945       8.10927952      22.65744336       0.00000000       0.00000000       0.00000000
C       12.39711402      21.92446643       2.20185346       0.00000000       0.00000000       0.00000000
C        1.72939525      12.47401091       0.10044767       0.00000000       0.00000000       0.00000000
C        0.74841145       9.46588974       0.68710696       0.00000000       0.00000000       0.00000000
C        0.00371220      22.38511634      17.72892343       0.00000000       0.00000000       0.00000000
C        5.30215028      22.89210313      17.63299274       0.00000000       0.00000000       0.00000000
C        3.51715217      20.91146250       0.82235218       0.00000000       0.00000000       0.00000000
C       10.41398721      15.76571926       3.64615641       0.00000000       0.00000000       0.00000000
C        9.37299497      16.14350664      19.30677195       0.00000000       0.00000000       0.00000000
C       21.72579755      19.21605118      18.41121993       0.00000000       0.00000000       0.00000000
C        5.46666967       8.72949081       3.75665585       0.00000000       0.00000000       0.00000000
C       17.97941636      14.13389810       5.64162326       0.00000000       0.00000000       0.00000000
C       20.88848056       3.35346998      18.01063833       0.00000000       0.00000000       0.00000000
C       15.16792629       2.46299429       5.65918741       0.00000000       0.00000000       0.00000000
C       12.10704343       9.55072973       1.03912694       0.00000000       0.00000000       0.00000000
C        3.79421224       6.00652084      20.30225607       0.00000000       0.00000000       0.00000000
C        2.59900075       0.02401082       6.17089648       0.00000000       0.00000000       0.00000000
C        3.87964969       4.04395665      17.93330796       0.00000000       0.00000000       0.00000000
C        6.54324661      17.35970330      20.38643063       0.00000000       0.00000000       0.00000000
C        7.66880423      20.34426719      19.63701825       0.00000000       0.00000000       0.00000000
C        9.46052653       3.83494477      17.99026073       0.00000000       0.00000000       0.00000000
C       13.27320582       1.96736232       1.24938376       0.00000000       0.00000000       0.00000000
C       19.88849772      20.23593228       4.16093873       0.00000000       0.00000000       0.00000000
C       21.85048048       5.77111984       4.49963044       0.00000000       0.00000000       0.00000000
C        8.39289618       5.36430351       0.19186889       0.00000000       0.00000000       0.00000000
C        6.44972473      11.77433815       3.05666009       0.00000000       0.00000000       0.00000000
C        4.71213916      18.04578826       5.54067918       0.00000000       0.00000000       0.00000000
C       21.79567886       8.92105769      19.61010476       0.00000000       0.00000000       0.00000000
C        4.55439873       3.54785639       1.99353171       0.00000000       0.00000000       0.00000000
C       18.44092863       7.74435304      18.56518885       0.00000000       0.00000000       0.00000000
C       18.67618459       4.44257689       3.81272473       0.00000000       0.00000000       0.00000000
C       22.59584591      16.84725466       0.44396195       0.00000000       0.00000000       0.00000000
C       14.11554076       7.54057707       2.75305280       0.00000000       0.00000000       0.00000000
C       15.18988399      16.29891382      19.27850485       0.00000000       0.00000000       0.00000000
C       21.04177190      10.80452134       1.93932558       0.00000000       0.00000000       0.00000000
C       10.46270582      21.36429736      20.71915148       0.00000000       0.00000000       0.00000000
C        2.95863696      11.00243206      17.68785432       0.00000000       0.00000000       0.00000000
Hf      12.16158643       6.48405882       3.63732390       0.00000000       0.00000000       0.00000000
Hf      18.95911169      15.27639280      19.81005664       0.00000000       0.00000000       0.00000000
Hf       6.37227691       8.79145506       6.19687489       0.00000000       0.00000000       0.00000000
Hf      17.94563142       6.73469245       3.75167632       0.00000000       0.00000000       0.00000000
Hf       1.08796791       6.66969323       3.61924237       0.00000000       0.00000000       0.00000000
Hf       3.71317816      13.43223605      22.16323835       0.00000000       0.00000000       0.00000000
Hf       9.43647549       2.69554457       0.33756773       0.00000000       0.00000000       0.00000000
Hf       2.46974762      13.06539831       2.05668057       0.00000000       0.00000000       0.00000000
Hf       3.39960344       1.27429978      20.97040391       0.00000000       0.00000000       0.00000000
Hf       6.64265256       6.79165487       3.57086563       0.00000000       0.00000000       0.00000000
Hf      11.30558075       3.25215764       4.60311742       0.00000000       0.00000000       0.00000000
Hf      11.46428464      19.29335555      21.03989522       0.00000000       0.00000000       0.00000000
Hf      17.72021671       9.92717301      18.50831061       0.00000000       0.00000000       0.00000000
Hf      19.63909904      22.81746910       1.16432368       0.00000000       0.00000000       0.00000000
Hf       9.48199302       5.57408051       2.14334632       0.00000000       0.00000000       0.00000000
Hf       4.01850258      20.05603276       5.48141823       0.00000000       0.00000000       0.00000000
Hf      14.97408671       5.35745613       2.54254692       0.00000000       0.00000000       0.00000000
Hf      10.47136944      16.24150142      21.34837788       0.00000000       0.00000000       0.00000000
Hf      12.67377900      16.77915878       2.84874364       0.00000000       0.00000000       0.00000000
Hf      21.58741975       0.83263483       5.70734420       0.00000000       0.00000000       0.00000000
Hf       5.62391152       7.24138360      19.24864755       0.00000000       0.00000000       0.00000000
Hf      14.07846372       4.67014556       5.64382130       0.00000000       0.00000000       0.00000000
Hf      20.66607001       8.81563095      17.55834230       0.00000000       0.00000000       0.00000000
Hf      20.42848670      20.94656401      18.35335202       0.00000000       0.00000000       0.00000000
Hf      15.80261532      10.70283163       4.15904967       0.00000000       0.00000000       0.00000000
Hf      15.24087478      18.29122681       3.94446821       0.00000000       0.00000000       0.00000000
Hf       0.61185145      19.87139178       4.55730797       0.00000000       0.00000000       0.00000000
Hf       1.27408253       9.83793322      18.71949125       0.00000000       0.00000000       0.00000000
Hf      16.97930523       1.12898970       2.50186838       0.00000000       0.00000000       0.00000000
Hf      10.44939256      18.66194717       0.84506601       0.00000000       0.00000000       0.00000000
Hf       3.70586295      16.10023506       1.31107194       0.00000000       0.00000000       0.00000000
Hf      12.26251741       1.74317996      22.11694065       0.00000000       0.00000000       0.00000000
Hf      12.10354292      22.15429973      19.71071964       0.00000000       0.00000000       0.00000000
Hf       0.53754498      14.84411749       0.38954319       0.00000000       0.00000000       0.00000000
Hf      12.15086182      10.17863202      18.99177506       0.00000000       0.00000000       0.00000000
Hf      11.61313545      16.00012153       5.71580752       0.00000000       0.00000000       0.00000000
Hf       5.54179864      17.25111082      18.27797987       0.00000000       0.00000000       0.00000000
Hf      18.36554696      12.44995520      20.74939400       0.00000000       0.00000000       0.00000000
Hf      13.10887742       9.42867600       3.04917732       0.00000000       0.00000000       0.00000000
Hf      18.90304240      17.74686605      22.21078924       0.00000000       0.00000000       0.00000000
Hf       7.55365010      20.03143265       1.72623599       0.00000000       0.00000000       0.00000000
Hf      22.06354030       8.33075195       1.83741623       0.00000000       0.00000000       0.00000000
Hf       0.87600068      22.47504038      19.93671759       0.00000000       0.00000000       0.00000000
Hf      16.24751116       8.63470791       1.73814128       0.00000000       0.00000000       0.00000000
Hf      15.79920318       5.89481637      22.60041895       0.00000000       0.00000000       0.00000000
Hf       7.56468867      17.52759988      22.44985936       0.00000000       0.00000000       0.00000000
Hf      17.98411068      19.35915552       5.25535101       0.00000000       0.00000000       0.00000000
Hf       9.99615246      10.59947349       4.11498301       0.00000000       0.00000000       0.00000000
Hf       4.56456689       4.01207845      20.08690730       0.00000000       0.00000000       0.00000000
Hf      15.26671262      21.28180598      18.81393134       0.00000000       0.00000000       0.00000000
Hf      19.99126042      10.25776639      22.65854441       0.00000000       0.00000000       0.00000000
Hf       0.39323106      17.21350961       2.56548326       0.00000000       0.00000000       0.00000000
Hf       4.80680373      16.59301672      21.43602796       0.00000000       0.00000000       0.00000000
Hf      10.46535144      20.89458772       2.95855279       0.00000000       0.00000000       0.00000000
Hf      11.58036422      13.58917355       3.79844394       0.00000000       0.00000000       0.00000000
Hf      22.84732204       7.03677540      19.41369288       0.00000000       0.00000000       0.00000000
Hf       6.67573540       4.30449772       1.35733879       0.00000000       0.00000000       0.00000000
Hf      14.38254645      20.53846588      21.80894214       0.00000000       0.00000000       0.00000000
Hf      20.75464376       3.20782633       0.70865413       0.00000000       0.00000000       0.00000000
Hf      20.42276842       5.09568061       2.98881657       0.00000000       0.00000000       0.00000000
Hf      17.62339047      11.55675442       1.31090963       0.00000000       0.00000000       0.00000000
Nb       5.48301659      19.45488350      20.67799498       0.00000000       0.00000000       0.00000000
Nb       4.00136033      11.16426759      19.82352127       0.00000000       0.00000000       0.00000000
Nb       2.99422716       2.48512296       3.54925283       0.00000000       0.00000000       0.00000000
Nb      16.95499240       3.60623976       4.60614518       0.00000000       0.00000000       0.00000000
Nb      19.22385630       5.69829986      18.61108176       0.00000000       0.00000000       0.00000000
Nb      15.16367759       2.96231692       0.47246271       0.00000000       0.00000000       0.00000000
Nb       0.87820413       2.11159002      21.89245493       0.00000000       0.00000000       0.00000000
Nb      15.27687004       7.81191308       4.61020202       0.00000000       0.00000000       0.00000000
Nb      19.06908646       7.19237358       0.87637203       0.00000000       0.00000000       0.00000000
Nb      19.06121583       4.80080400      21.81228248       0.00000000       0.00000000       0.00000000
Nb      22.76365821       9.07007860      21.59101329       0.00000000       0.00000000       0.00000000
Nb      16.59052127       9.62457132      21.57574742       0.00000000       0.00000000       0.00000000
Nb      16.17344543      14.16522254      18.87473115       0.00000000       0.00000000       0.00000000
Nb      21.64448108      16.53297939      21.07566904       0.00000000       0.00000000       0.00000000
Nb       1.58340221      20.10258899       1.53504533       0.00000000       0.00000000       0.00000000
Nb       7.58393384      22.12515289       3.92783995       0.00000000       0.00000000       0.00000000
Nb      12.26607568       3.99865320       1.17281829       0.00000000       0.00000000       0.00000000
Nb      13.43832598      19.91255855       1.92658784       0.00000000       0.00000000       0.00000000
Nb       6.67004511      18.99306736       4.60987947       0.00000000       0.00000000       0.00000000
Nb       4.73795272      18.78408064       0.47721727       0.00000000       0.00000000       0.00000000
Nb      22.47071402      16.22627993       5.40538737       0.00000000       0.00000000       0.00000000
Nb       9.55389388      17.76238828       3.98065237       0.00000000       0.00000000       0.00000000
Nb       3.80888538       3.26920498       0.20482966       0.00000000       0.00000000       0.00000000
Nb      18.11393686       8.63801780       6.22411780       0.00000000       0.00000000       0.00000000
Nb      22.60049980      19.52438840      20.35149921       0.00000000       0.00000000       0.00000000
Nb       8.38743303       6.05406846      18.12038349       0.00000000       0.00000000       0.00000000
Nb      17.89220980      16.85934355       2.51411113       0.00000000       0.00000000       0.00000000
Nb       9.42791195      20.19804993       5.99579097       0.00000000       0.00000000       0.00000000
Nb      19.26183398      12.98787973      17.71650890       0.00000000       0.00000000       0.00000000
Nb      20.62958293      18.28977463       3.91709597       0.00000000       0.00000000       0.00000000
Nb       8.63784557      14.81929363       4.38473205       0.00000000       0.00000000       0.00000000
Nb       1.67167897      15.50365904      20.35492182       0.00000000       0.00000000       0.00000000
Nb      17.83565212       4.24932130       1.60976682       0.00000000       0.00000000       0.00000000
Nb      22.82869987      22.06406272      22.54649941       0.00000000       0.00000000       0.00000000
Nb      14.10978090      10.43513265       0.25796734       0.00000000       0.00000000       0.00000000
Nb       3.76356284      21.31594251      18.71861104       0.00000000       0.00000000       0.00000000
Nb      18.87237730      19.81376998       1.98695108       0.00000000       0.00000000       0.00000000
Nb       4.75931019      13.16963116       6.35965003       0.00000000       0.00000000       0.00000000
Nb      19.63245673       4.59508367       5.90976700       0.00000000       0.00000000       0.00000000
Nb      21.62132610       5.91004262      22.45958295       0.00000000       0.00000000       0.00000000
Nb      10.43220225       0.26875332       5.15671787       0.00000000       0.00000000       0.00000000
Nb      12.03138205       8.50395358       5.79862249       0.00000000       0.00000000       0.00000000
Nb      13.16427346      22.07521370       4.24188936       0.00000000       0.00000000       0.00000000
Nb       8.43393762       8.11702404      20.36475797       0.00000000       0.00000000       0.00000000
Nb       5.40938223       9.15958439      21.55973911       0.00000000       0.00000000       0.00000000
Nb      11.51297197       0.96273412       2.38692415       0.00000000       0.00000000       0.00000000
Nb      19.54596230       2.47352091       3.53224413       0.00000000       0.00000000       0.00000000
Nb       3.49629398      18.22284799       3.50308994       0.00000000       0.00000000       0.00000000
Nb       5.34874641      11.46760857       0.93462080       0.00000000       0.00000000       0.00000000
Nb       7.20003458       5.36767904      20.96575638       0.00000000       0.00000000       0.00000000
Nb      20.11405492      20.99024602      21.57094150       0.00000000       0.00000000       0.00000000
Nb      13.10044755       7.38044329       0.83050466       0.00000000       0.00000000       0.00000000
Ta       2.61100012      15.45433236       4.20243572       0.00000000       0.00000000       0.00000000
Ta      16.56260111       1.21905501      18.25633949       0.00000000       0.00000000       0.00000000
Ta       9.57464693      15.67336142       1.56897348       0.00000000       0.00000000       0.00000000
Ta      20.81546336       0.81741072      20.90544821       0.00000000       0.00000000       0.00000000
Ta      20.79786488      20.57114067       6.06684232       0.00000000       0.00000000       0.00000000
Ta       9.46378924      21.10578128      18.56694026       0.00000000       0.00000000       0.00000000
Ta      13.61822851      17.21946772      22.78878794       0.00000000       0.00000000       0.00000000
Ta      12.04579615      12.38126953      21.20393230       0.00000000       0.00000000       0.00000000
Ta      22.66758713      13.87425958       3.51528265       0.00000000       0.00000000       0.00000000
Ta      13.12552511      13.21336415      18.26377177       0.00000000       0.00000000       0.00000000
Ta       4.41990840      21.42116564       2.81162391       0.00000000       0.00000000       0.00000000
Ta      17.03994109      16.09469172       5.47778640       0.00000000       0.00000000       0.00000000
Ta      19.68750074      18.25910589      18.98681172       0.00000000       0.00000000       0.00000000
Ta      10.21575456       8.54928966       1.73200564       0.00000000       0.00000000       0.00000000
Ta       7.54135159      13.22745038      17.94194624       0.00000000       0.00000000       0.00000000
Ta       8.31628603      12.53279124       2.20630190       0.00000000       0.00000000       0.00000000
Ta      16.98456333      21.54423842       0.20023646       0.00000000       0.00000000       0.00000000
Ta       7.76499651      12.10313931       5.61430738       0.00000000       0.00000000       0.00000000
Ta      18.13804203       1.98710401      22.19032697       0.00000000       0.00000000       0.00000000
Ta       8.22156215       4.79833989       5.16645277       0.00000000       0.00000000       0.00000000
Ta      18.18075094      22.29790730      20.09964807       0.00000000       0.00000000       0.00000000
Ta       7.38299604       7.42977620       0.39387465       0.00000000       0.00000000       0.00000000
Ta       2.99183983       6.07378178      17.85826477       0.00000000       0.00000000       0.00000000
Ta       4.71088581       1.96206695      17.76065891       0.00000000       0.00000000       0.00000000
Ta      11.68545922      21.68108455       0.20928913       0.00000000       0.00000000       0.00000000
Ta      10.98448143      11.57376665       1.01174239       0.00000000       0.00000000       0.00000000
Ta      14.75062860       9.30907403      17.75852088       0.00000000       0.00000000       0.00000000
Ta       2.16690085       3.26754030      18.80816667       0.00000000       0.00000000       0.00000000
Ta      14.95110481       0.78022924      20.88923446       0.00000000       0.00000000       0.00000000
Ta       7.73469149       1.43112904       6.15056217       0.00000000       0.00000000       0.00000000
Ta      20.14087585      12.66999745       2.40166326       0.00000000       0.00000000       0.00000000
Ta      17.93265074      14.69405592       0.07902599       0.00000000       0.00000000       0.00000000
Ta       8.09266907      10.10482856      22.87141196       0.00000000       0.00000000       0.00000000
Ta      19.52083615       9.75275898       3.15653401       0.00000000       0.00000000       0.00000000
Ta       1.27243455      17.89032060      22.39625247       0.00000000       0.00000000       0.00000000
Ta       2.44300273      18.22701500      19.51540763       0.00000000       0.00000000       0.00000000
Ta       7.53356662      15.05748705      20.28017366       0.00000000       0.00000000       0.00000000
Ta      14.25108916      12.78402296       2.19843641       0.00000000       0.00000000       0.00000000
Ta       3.62495805       7.92657308       4.59636638       0.00000000       0.00000000       0.00000000
Ta      22.02488216       1.45495547      18.00761107       0.00000000       0.00000000       0.00000000
Ta       4.68807972      14.30178519      19.02921146       0.00000000       0.00000000       0.00000000
Ta      13.98490690       8.22598933      20.66604799       0.00000000       0.00000000       0.00000000
Ta      22.16703858      21.67281267       2.40544308       0.00000000       0.00000000       0.00000000
Ta       5.26843678      13.51288285       3.26606230       0.00000000       0.00000000       0.00000000
Ta      11.40273018      17.26036280      18.33310340       0.00000000       0.00000000       0.00000000
Ta       0.90193911      11.77238348      21.21662755       0.00000000       0.00000000       0.00000000
Ta      14.43930566      14.91364281       4.73214058       0.00000000       0.00000000       0.00000000
Ta      13.13911582       2.99327737      19.04264082       0.00000000       0.00000000       0.00000000
Ta       7.27827373       9.62201112       2.95155847       0.00000000       0.00000000       0.00000000
Ta      16.18460702       3.55767653      20.33978536       0.00000000       0.00000000       0.00000000
Ta       6.65928449      10.02844413      18.35856572       0.00000000       0.00000000       0.00000000
Ta      22.59105776       5.98137126       6.38766246       0.00000000       0.00000000       0.00000000
Ta      16.22845456      16.32322467      21.17196823       0.00000000       0.00000000       0.00000000
Ta       0.07948029       1.50466877       2.20184736       0.00000000       0.00000000       0.00000000
Ta      14.29177124      22.89099111       1.34471747       0.00000000       0.00000000       0.00000000
Ta       9.43488882       0.33912440      20.83407584       0.00000000       0.00000000       0.00000000
Ta       2.70169932      20.46946459      21.72292758       0.00000000       0.00000000       0.00000000
Ta       1.53686970       4.91707449      21.42204992       0.00000000       0.00000000       0.00000000
Ta      11.28024461       9.21988273      21.98465781       0.00000000       0.00000000       0.00000000
Ta      11.40000381       6.92268509      19.12855659       0.00000000       0.00000000       0.00000000
Ta       6.41380864      12.13864021      21.19513258       0.00000000       0.00000000       0.00000000
Ti       1.74012604      22.80966408       4.01476058       0.00000000       0.00000000       0.00000000
Ti      16.06719400       0.39271061       5.42950916       0.00000000       0.00000000       0.00000000
Ti      16.70269157       6.84375369      19.71220429       0.00000000       0.00000000       0.00000000
Ti       2.63012888       4.87723324       5.61376838       0.00000000       0.00000000       0.00000000
Ti       0.60372745      18.98296092       5.35544887       0.00000000       0.00000000       0.00000000
Ti       4.74569336       6.22094576      22.35335793       0.00000000       0.00000000       0.00000000
Ti      21.20855124      21.76043229      18.76201988       0.00000000       0.00000000       0.00000000
Ti       6.53772947      16.79752069       2.74401637       0.00000000       0.00000000       0.00000000
Ti       8.65362874      22.78438246       0.86310493       0.00000000       0.00000000       0.00000000
Ti       9.51305942       3.61739764      22.47882709       0.00000000       0.00000000       0.00000000
Ti      15.55083776      15.56882511       1.69834088       0.00000000       0.00000000       0.00000000
Ti       5.72029703       3.05437736       4.97785556       0.00000000       0.00000000       0.00000000
Ti      22.85074381      11.62679219       1.16478049       0.00000000       0.00000000       0.00000000
Ti       5.80366099      15.82622644       5.57936968       0.00000000       0.00000000       0.00000000
Ti       2.07706788      11.86623290       5.28235502       0.00000000       0.00000000       0.00000000
Ti      21.91462736       6.45415475      18.90605513       0.00000000       0.00000000       0.00000000
Ti      10.25995704       4.31590499      19.92572002       0.00000000       0.00000000       0.00000000
Ti      20.99618605      13.38834859      21.89024882       0.00000000       0.00000000       0.00000000
Ti      17.09891958      13.83785372       3.44337613       0.00000000       0.00000000       0.00000000
Ti       9.41854407      11.22827334      19.93745130       0.00000000       0.00000000       0.00000000
Ti      21.78353233      14.29458099      19.04018890       0.00000000       0.00000000       0.00000000
Ti       8.98850142      13.19766553      22.15962178       0.00000000       0.00000000       0.00000000
Ti       8.69305484       2.49440078       3.12447864       0.00000000       0.00000000       0.00000000
Ti       2.93052043      10.34576942       0.01987729       0.00000000       0.00000000       0.00000000
Ti      22.22323823       1.07423635       4.73622969       0.00000000       0.00000000       0.00000000
Ti       4.65729932       8.32285941       1.50016228       0.00000000       0.00000000       0.00000000
Ti      20.93279269       7.66716123       4.79034765       0.00000000       0.00000000       0.00000000
Ti      15.32634770      11.76812305      19.86601454       0.00000000       0.00000000       0.00000000
Ti       9.16219645       7.63752052       4.76944598       0.00000000       0.00000000       0.00000000
Ti      16.25813168      18.64113315       0.58238258       0.00000000       0.00000000       0.00000000
Ti       3.90528593       5.56852043       2.42183339       0.00000000       0.00000000       0.00000000
Ti      15.29027036      13.57270440      22.25949465       0.00000000       0.00000000       0.00000000
Ti       6.55516011      22.24123131      19.77185847       0.00000000       0.00000000       0.00000000
Ti       6.77047036      20.00230657      17.75198556       0.00000000       0.00000000       0.00000000
Ti       4.01220670       0.56000478      20.26381495       0.00000000       0.00000000       0.00000000
Ti      10.04040295       6.35136729      22.25225506       0.00000000       0.00000000       0.00000000
Zr       0.08744858       3.79684027       4.60229747       0.00000000       0.00000000       0.00000000
Zr       0.89105053      12.91190747      20.74276196       0.00000000       0.00000000       0.00000000
Zr      13.17667537      11.62799071       5.50474530       0.00000000       0.00000000       0.00000000
Zr      13.18616374       5.27016847      21.40079538       0.00000000       0.00000000       0.00000000
Zr       5.67968807       1.50161048       2.20130063       0.00000000       0.00000000       0.00000000
Zr      13.92324361      18.41874786      19.45394170       0.00000000       0.00000000       0.00000000
Zr       0.98743844       4.47542346       1.53382038       0.00000000       0.00000000       0.00000000
Zr      19.96479909      15.20262620       4.66338607       0.00000000       0.00000000       0.00000000
Zr       1.08948835       8.96517482       5.94692220       0.00000000       0.00000000       0.00000000
Zr      12.26347755      14.32460029       0.69084518       0.00000000       0.00000000       0.00000000
Zr      14.06600347       2.35909942       3.46669689       0.00000000       0.00000000       0.00000000
Zr      21.80297064      18.95995371       0.42942153       0.00000000       0.00000000       0.00000000
Zr       2.80481905       8.06744985      20.55146525       0.00000000       0.00000000       0.00000000
Zr       6.59805174      14.39232170       0.66639885       0.00000000       0.00000000       0.00000000
Zr      13.31971080      15.24797278      20.42706568       0.00000000       0.00000000       0.00000000
Zr      15.07171918      20.42266759       6.18164222       0.00000000       0.00000000       0.00000000
Zr      18.94307168      11.99545943       5.35606112       0.00000000       0.00000000       0.00000000
Zr       7.64134890       2.87380570      18.98627193       0.00000000       0.00000000       0.00000000
Zr      16.89758649      17.29786595      17.96225983       0.00000000       0.00000000       0.00000000
Zr      15.84141552      20.97750959       3.26598462       0.00000000       0.00000000       0.00000000
Zr       4.62562644      10.84982718       4.31350762       0.00000000       0.00000000       0.00000000
Zr      12.43146350      19.14836149       5.32176590       0.00000000       0.00000000       0.00000000
Zr       8.48022336      18.15085752      19.47070205       0.00000000       0.00000000       0.00000000
Zr      18.95877513      22.21622227       4.42579646       0.00000000       0.00000000       0.00000000
Zr      21.93218874      10.57739355       4.24126211       0.00000000       0.00000000       0.00000000
Zr       2.64554009       0.19552417       1.03102187       0.00000000       0.00000000       0.00000000
Zr      20.50082822      15.93321626       1.45143180       0.00000000       0.00000000       0.00000000
Zr       5.44260754      21.81448137      22.65071182       0.00000000       0.00000000       0.00000000
Zr       4.54150882       0.63049714       5.26166385       0.00000000       0.00000000       0.00000000
Zr      14.11543901       5.82311816      18.40562035       0.00000000       0.00000000       0.00000000
Zr      21.74165880      12.87472491       6.38055768       0.00000000       0.00000000       0.00000000
Zr       2.18077003      13.09444415      17.80008066       0.00000000       0.00000000       0.00000000
Zr      22.57718760      17.12416657      17.94230041       0.00000000       0.00000000       0.00000000
Zr      21.85450102       3.60090512      20.40339464       0.00000000       0.00000000       0.00000000
Zr      10.42935330       1.62985329      17.86198668       0.00000000       0.00000000       0.00000000
Zr      21.15065295      10.92317689      19.44149219       0.00000000       0.00000000       0.00000000
Zr       1.97195923       7.47633882       0.33065744       0.00000000       0.00000000       0.00000000
Zr      19.59878579       7.95878419      20.47996622       0.00000000       0.00000000       0.00000000
Zr       8.62116973      20.64702970      21.59397910       0.00000000       0.00000000       0.00000000
Zr       6.72521109       2.27440798      21.88066705       0.00000000       0.00000000       0.00000000
Zr      16.85049020      19.19884419      20.56034210       0.00000000       0.00000000       0.00000000
Zr      19.05789739       2.42405879      19.07973687       0.00000000       0.00000000       0.00000000
Zr       9.99565217      14.01473939      19.25843602       0.00000000       0.00000000       0.00000000
Zr       1.65137890       9.82237918       2.75793425       0.00000000       0.00000000       0.00000000
C        0.92491568      17.50177560      11.01694824       0.00000000       0.00000000       0.00000000
C        1.96887866      16.07418716      15.21211608       0.00000000       0.00000000       0.00000000
C        1.51482965      18.60511338      16.85942959       0.00000000       0.00000000       0.00000000
C        0.02973330       1.34351215      17.27377492       0.00000000       0.00000000       0.00000000
C        0.20752142      14.58865671      11.97095209       0.00000000       0.00000000       0.00000000
C        0.48924895       6.12454106       8.80417632       0.00000000       0.00000000       0.00000000
C        1.32278872      19.26783119      14.23361376       0.00000000       0.00000000       0.00000000
C        1.59765600       0.71181379       8.22473077       0.00000000       0.00000000       0.00000000
C        1.14726361      10.11335884       9.96923217       0.00000000       0.00000000       0.00000000
C        1.36554099      13.83437941       8.03722138       0.00000000       0.00000000       0.00000000
C        1.90185934      13.44621072      14.40994539       0.00000000       0.00000000       0.00000000
C        0.81784666      12.78787797      15.20730731       0.00000000       0.00000000       0.00000000
C        0.38699901      15.03711337       7.99506155       0.00000000       0.00000000       0.00000000
C        0.96700729       2.20362181       6.61598747       0.00000000       0.00000000       0.00000000
C        0.65248803      12.67009453       8.46499545       0.00000000       0.00000000       0.00000000
C        1.67096011       5.87140865       8.74162358       0.00000000       0.00000000       0.00000000
C        1.81653656      18.26888992      11.75431656       0.00000000       0.00000000       0.00000000
Hf       1.46077091       8.35082939      12.14997702       0.00000000       0.00000000       0.00000000
Nb       0.56508921       2.05650037      11.32349418       0.00000000       0.00000000       0.00000000
Ti       0.27163408      12.33680551      10.77564985       0.00000000       0.00000000       0.00000000
Ti       0.16640506      14.33102729      14.16301298       0.00000000       0.00000000       0.00000000
Ti       1.02671523       3.67730447      14.35119899       0.00000000       0.00000000       0.00000000
Zr       1.31481594       7.86859034       7.79041628       0.00000000       0.00000000       0.00000000
Zr       0.87688241      17.39814291       8.24267967       0.00000000       0.00000000       0.00000000
Zr       1.43096031      15.61379200      10.39013651       0.00000000       0.00000000       0.00000000
Zr       1.69347840       2.87412667       8.97999637       0.00000000       0.00000000       0.00000000
Zr       1.87655155      10.34994185      16.80261330       0.00000000       0.00000000       0.00000000
Zr       0.26766202       8.49748871      15.02227063       0.00000000       0.00000000       0.00000000
C        0.46363046      19.88822447       8.80801862       0.00000000       0.00000000       0.00000000
C        0.02344274      21.28975028      10.05376703       0.00000000       0.00000000       0.00000000
C        1.13910228      22.11203398      12.19771503       0.00000000       0.00000000       0.00000000
Ta       1.09232551      20.41192214      15.84364127       0.00000000       0.00000000       0.00000000
Ti       1.17300109      22.79106225      13.77477156       0.00000000       0.00000000       0.00000000
Ti       1.89677989      20.50863053       7.95818370       0.00000000       0.00000000       0.00000000
C       12.66107185       5.79574503      17.51612789       0.00000000       0.00000000       0.00000000
C       13.72899970      13.74550100       8.45091900       0.00000000       0.00000000       0.00000000
C       20.24935870      15.33406434      13.42649439       0.00000000       0.00000000       0.00000000
C       19.62991493       6.86811051       9.21179488       0.00000000       0.00000000       0.00000000
C        9.21267567      13.77799071      16.01297512       0.00000000       0.00000000       0.00000000
C        4.02122309      10.72055674      15.74606996       0.00000000       0.00000000       0.00000000
C        4.54005474      13.02322435      11.85154297       0.00000000       0.00000000       0.00000000
C       18.47287951       8.35947024      13.40899044       0.00000000       0.00000000       0.00000000
C       12.09403433      16.53902439       8.58289372       0.00000000       0.00000000       0.00000000
Ti       5.44353602      15.52935324      11.44300366       0.00000000       0.00000000       0.00000000
Ti      16.68948653       0.20272384      11.49938646       0.00000000       0.00000000       0.00000000
C        3.48461502      16.16909855      11.09205032       0.00000000       0.00000000       0.00000000
C        2.72619801       7.17542061      17.31979387       0.00000000       0.00000000       0.00000000
C       21.48216636      18.32249404      17.25967459       0.00000000       0.00000000       0.00000000
C        6.94572387       4.95572236      15.30036257       0.00000000       0.00000000       0.00000000
C        3.19106261       3.19246420      14.45889293       0.00000000       0.00000000       0.00000000
C       17.38311021       4.26905532       8.82170862       0.00000000       0.00000000       0.00000000
C        4.49408505      18.40740675      13.67464623       0.00000000       0.00000000       0.00000000
C        6.49226012      11.13422199      16.33886123       0.00000000       0.00000000       0.00000000
C       11.66239406      11.00579987       9.73244264       0.00000000       0.00000000       0.00000000
C       16.60359921       7.75014367       8.78660382       0.00000000       0.00000000       0.00000000
C       11.43039281      14.82448682      16.92951746       0.00000000       0.00000000       0.00000000
C        8.09369936      10.36290300       7.94306642       0.00000000       0.00000000       0.00000000
C        5.28623254      18.27657695       7.48837886       0.00000000       0.00000000       0.00000000
C        3.77950681       4.90090087       6.94657003       0.00000000       0.00000000       0.00000000
C       12.53604379       9.15520279       7.68940496       0.00000000       0.00000000       0.00000000
C       17.23396242       5.51280402      11.66020663       0.00000000       0.00000000       0.00000000
C       13.19624172       5.46223131      11.48723456       0.00000000       0.00000000       0.00000000
C       15.21239821       3.21547109      12.00351579       0.00000000       0.00000000       0.00000000
C       10.14941313       0.50520054      14.33659114       0.00000000       0.00000000       0.00000000
C        5.16207171      14.05142716      11.11944350       0.00000000       0.00000000       0.00000000
C        3.54788442       9.31013661       6.62470304       0.00000000       0.00000000       0.00000000
C        8.16805232       5.42209720      12.19489560       0.00000000       0.00000000       0.00000000
C       14.51521190      12.60994368      17.16938138       0.00000000       0.00000000       0.00000000
C        6.70510976       2.48176794      13.90697947       0.00000000       0.00000000       0.00000000
C        2.19986267      15.80256189      16.77230211       0.00000000       0.00000000       0.00000000
C        9.18572663      13.08857355      12.42229342       0.00000000       0.00000000       0.00000000
C       20.48731198       5.60237778       8.81299255       0.00000000       0.00000000       0.00000000
C        6.11419969      13.90703174       6.79739232       0.00000000       0.00000000       0.00000000
C       12.13596492      15.52616373      12.97670994       0.00000000       0.00000000       0.00000000
C       21.28668533      11.48902410      12.29281308       0.00000000       0.00000000       0.00000000
C        7.34813908       9.12137446      15.54176474       0.00000000       0.00000000       0.00000000
C       12.07550997      16.16982464      14.24339443       0.00000000       0.00000000       0.00000000
C       17.76756247      14.10472794      11.17631512       0.00000000       0.00000000       0.00000000
C       19.22922631       4.74905703      14.64858572       0.00000000       0.00000000       0.00000000
C       20.27929848       9.33302343       7.79785913       0.00000000       0.00000000       0.00000000
C       22.67400425       8.52710564       9.71693585       0.00000000       0.00000000       0.00000000
C       13.61221571      12.89741523      11.58972092       0.00000000       0.00000000       0.00000000
C       11.06565037       8.87270002      11.35051642       0.00000000       0.00000000       0.00000000
C       10.50214702       6.59943267      15.83629371       0.00000000       0.00000000       0.00000000
C       15.38012003      14.44277318      13.64472325       0.00000000       0.00000000       0.00000000
C       20.74335540      10.68893602       8.34149667       0.00000000       0.00000000       0.00000000
C       14.14953527      16.99916898      16.67974258       0.00000000       0.00000000       0.00000000
C        8.03222185       6.64006533      12.16195863       0.00000000       0.00000000       0.00000000
C       10.81750655       0.32382937       9.69474067       0.00000000       0.00000000       0.00000000
C       22.40255963      11.95874335      15.05817424       0.00000000       0.00000000       0.00000000
C        9.16303526       2.58991255      11.00510484       0.00000000       0.00000000       0.00000000
C       18.25998503       5.45666704      15.45144861       0.00000000       0.00000000       0.00000000
C       13.27305938       1.34394654      13.58253430       0.00000000       0.00000000       0.00000000
C        8.56341309      12.37075543      11.34101493       0.00000000       0.00000000       0.00000000
C       18.99717240      11.75343604      14.48141335       0.00000000       0.00000000       0.00000000
C       18.61282543      15.33265166      15.31995847       0.00000000       0.00000000       0.00000000
C        8.65385373       7.30350690      17.52287249       0.00000000       0.00000000       0.00000000
C        3.79802139      18.31124581      16.55387883       0.00000000       0.00000000       0.00000000
C       14.52471180      16.96877064      12.11799396       0.00000000       0.00000000       0.00000000
C       21.17610481      13.34872379      11.87790147       0.00000000       0.00000000       0.00000000
C        2.10229577       6.61750775      14.13157938       0.00000000       0.00000000       0.00000000
C        5.01722406       5.57601917       7.33056130       0.00000000       0.00000000       0.00000000
C        6.32639856      13.61577698       7.99946516       0.00000000       0.00000000       0.00000000
C       21.37778021       2.90944963      13.45060563       0.00000000       0.00000000       0.00000000
C       16.58691054       5.31354618      15.20534166       0.00000000       0.00000000       0.00000000
C       10.15619978       3.00155777      15.91328493       0.00000000       0.00000000       0.00000000
C        4.47860036       6.63018118      17.14665678       0.00000000       0.00000000       0.00000000
C        9.98421816       8.23537730       8.88678312       0.00000000       0.00000000       0.00000000
C       21.03507961       7.46077795      16.25927600       0.00000000       0.00000000       0.00000000
C        5.15644529       9.72226507       6.52568110       0.00000000       0.00000000       0.00000000
C        5.55999563       2.37128179      17.00884781       0.00000000       0.00000000       0.00000000
C       13.35133346       2.84166874      15.21708389       0.00000000       0.00000000       0.00000000
C       16.24118932       0.17886993      14.98773715       0.00000000       0.00000000       0.00000000
C        5.65434198       2.00806748      13.29023086       0.00000000       0.00000000       0.00000000
C       11.43284920       8.59160420      13.08444454       0.00000000       0.00000000       0.00000000
C       12.72540262       0.46307596      17.24017114       0.00000000       0.00000000       0.00000000
C       13.01919404       9.05309015      13.86039701       0.00000000       0.00000000       0.00000000
C       14.58808250      13.61108612      16.21290430       0.00000000       0.00000000       0.00000000
C        2.86358695       3.19833489      12.83562770       0.00000000       0.00000000       0.00000000
C        6.55799048       1.59375299      10.30043443       0.00000000       0.00000000       0.00000000
C        4.24269654       8.72483618      13.10958890       0.00000000       0.00000000       0.00000000
C        4.77001824       7.73162945      12.60736568       0.00000000       0.00000000       0.00000000
C       16.18361696       0.89772828      10.60714374       0.00000000       0.00000000       0.00000000
C        2.91956923       1.41452458      15.26267728       0.00000000       0.00000000       0.00000000
C       17.63158459      17.87754181      10.84461477       0.00000000       0.00000000       0.00000000
C       18.54133879       1.26375062      14.46798530       0.00000000       0.00000000       0.00000000
C        5.67235889      17.72426228      14.06860282       0.00000000       0.00000000       0.00000000
C       13.21125947       1.62393925       7.72088511       0.00000000       0.00000000       0.00000000
C        7.08157197       8.13846483      10.48575351       0.00000000       0.00000000       0.00000000
C        6.04644666      16.37700599      17.38858885       0.00000000       0.00000000       0.00000000
C       20.54951077      16.68618783       7.66477812       0.00000000       0.00000000       0.00000000
C       13.74135264      18.11568949       6.58784582       0.00000000       0.00000000       0.00000000
C       12.98639325       9.95877252      14.97674177       0.00000000       0.00000000       0.00000000
C        2.01604429      15.37889896      13.89433153       0.00000000       0.00000000       0.00000000
C       13.69399784       6.94651894      17.01777961       0.00000000       0.00000000       0.00000000
C       15.77722175      18.09631446      14.55961055       0.00000000       0.00000000       0.00000000
C       13.62885832       4.93829158       6.93498507       0.00000000       0.00000000       0.00000000
C       12.98745762       1.22819334      12.27444064       0.00000000       0.00000000       0.00000000
C       18.56102716      18.36852357      10.03751702       0.00000000       0.00000000       0.00000000
C       16.28523160      10.43502767      13.12569678       0.00000000       0.00000000       0.00000000
C        6.55857189      17.44911962      16.87077188       0.00000000       0.00000000       0.00000000
C       18.00707997      13.87680468       8.34437363       0.00000000       0.00000000       0.00000000
C       22.29036310      10.76061816      15.65890563       0.00000000       0.00000000       0.00000000
C        6.07521861      10.51234630      11.85131853       0.00000000       0.00000000       0.00000000
C        8.23245366      16.19553674      12.88639161       0.00000000       0.00000000       0.00000000
C        8.80689448      16.91432344       7.87055734       0.00000000       0.00000000       0.00000000
C       12.38585119      14.15137754       9.06443036       0.00000000       0.00000000       0.00000000
C       21.12048675       5.67576115      13.48411088       0.00000000       0.00000000       0.00000000
C       16.13481867       4.11477207       8.68184569       0.00000000       0.00000000       0.00000000
C       15.33906483      16.46603157       9.48901562       0.00000000       0.00000000       0.00000000
C       19.08456299      16.13365649      13.98764934       0.00000000       0.00000000       0.00000000
C       16.20755201      18.83944474       7.90249962       0.00000000       0.00000000       0.00000000
C       20.22815765      16.65197670       9.07459135       0.00000000       0.00000000       0.00000000
C        9.21968651      16.92016978       9.26365408       0.00000000       0.00000000       0.00000000
C       10.77142810      18.78174293      11.49553845       0.00000000       0.00000000       0.00000000
C       17.77214191       6.17987923       8.92031809       0.00000000       0.00000000       0.00000000
C       15.72110803      10.43651780       9.18134606       0.00000000       0.00000000       0.00000000
C       15.66541952      10.28391031      11.91609848       0.00000000       0.00000000       0.00000000
C       11.54808947       3.13273529       8.63672583       0.00000000       0.00000000       0.00000000
C       10.09873070      14.41175114      16.78312424       0.00000000       0.00000000       0.00000000
C       19.47259846      11.91092346       9.84803905       0.00000000       0.00000000       0.00000000
C       12.46831343      10.65327079       7.20922081       0.00000000       0.00000000       0.00000000
C       22.87887758      17.72992695      11.02139411       0.00000000       0.00000000       0.00000000
Hf       8.27264688      12.46233205       6.90294546       0.00000000       0.00000000       0.00000000
Hf      17.39453995       4.34113459      17.41789034       0.00000000       0.00000000       0.00000000
Hf       7.30850357       8.42557700      12.98397931       0.00000000       0.00000000       0.00000000
Hf      10.91723253      18.41850479      14.52386019       0.00000000       0.00000000       0.00000000
Hf      16.01421194      16.74412102       7.03099468       0.00000000       0.00000000       0.00000000
Hf       2.34831727      13.00137810      12.36841380       0.00000000       0.00000000       0.00000000
Hf       8.56419056       0.56558954       9.85523771       0.00000000       0.00000000       0.00000000
Hf      13.57156365      17.97943539       8.82705296       0.00000000       0.00000000       0.00000000
Hf      18.95901819      12.14093650       7.39014795       0.00000000       0.00000000       0.00000000
Hf      13.81875100      15.27209578      10.24688761       0.00000000       0.00000000       0.00000000
Hf      13.17182144      15.46239220       7.29895094       0.00000000       0.00000000       0.00000000
Hf      18.79392277       6.86294618      11.89240750       0.00000000       0.00000000       0.00000000
Hf      16.48257126       6.99311684      13.09352384       0.00000000       0.00000000       0.00000000
Hf      18.56370301      18.08612056       7.84545477       0.00000000       0.00000000       0.00000000
Hf      16.10682348      16.06638899      16.46116870       0.00000000       0.00000000       0.00000000
Hf       7.30545424       4.70377148       6.50300144       0.00000000       0.00000000       0.00000000
Hf      11.78428033       3.87190754      16.57407537       0.00000000       0.00000000       0.00000000
Hf      15.85788668       5.97378278       9.97531407       0.00000000       0.00000000       0.00000000
Hf      11.19072859       5.18244836       9.09860604       0.00000000       0.00000000       0.00000000
Hf       3.77345446      10.36245546      11.27632361       0.00000000       0.00000000       0.00000000
Hf       5.51244081       1.26986186      15.47852718       0.00000000       0.00000000       0.00000000
Hf      18.57696507      13.58413293      16.70272408       0.00000000       0.00000000       0.00000000
Hf       6.49053022      13.60543616      16.94289733       0.00000000       0.00000000       0.00000000
Hf      16.44743048      12.75708445      12.70764695       0.00000000       0.00000000       0.00000000
Hf      22.78709558      12.37901457      17.33512722       0.00000000       0.00000000       0.00000000
Hf       8.71372795       4.63158687      16.96096966       0.00000000       0.00000000       0.00000000
Hf      20.11266148      14.18556005       9.05362929       0.00000000       0.00000000       0.00000000
Hf      17.18278665      15.67113673       9.66709356       0.00000000       0.00000000       0.00000000
Hf      11.72500927      11.41825287      16.32480897       0.00000000       0.00000000       0.00000000
Hf      14.32442229       8.21878249       7.85002466       0.00000000       0.00000000       0.00000000
Hf       7.35851904       3.79716190      10.67853527       0.00000000       0.00000000       0.00000000
Hf      21.42667508       7.50056225      11.39042367       0.00000000       0.00000000       0.00000000
Hf       6.73477932       6.83268844      15.83049131       0.00000000       0.00000000       0.00000000
Hf       3.47472276      17.62680097       9.56723807       0.00000000       0.00000000       0.00000000
Nb      11.40203057      16.86990315      10.57019483       0.00000000       0.00000000       0.00000000
Nb      21.39227041       4.14893478      14.72990216       0.00000000       0.00000000       0.00000000
Nb       5.61682434      17.65329175      11.85800389       0.00000000       0.00000000       0.00000000
Nb      20.36988832       4.06445219      12.17386145       0.00000000       0.00000000       0.00000000
Nb      19.07418641      12.76397121      11.59208389       0.00000000       0.00000000       0.00000000
Nb       9.28850937       8.83730481      15.38314312       0.00000000       0.00000000       0.00000000
Nb      19.56595070       0.66246498      16.16628140       0.00000000       0.00000000       0.00000000
Nb      20.30654206       3.48494815       9.44536566       0.00000000       0.00000000       0.00000000
Nb      12.36179693      17.52452902      17.22087707       0.00000000       0.00000000       0.00000000
Nb      17.34031844      10.51416640      14.93843817       0.00000000       0.00000000       0.00000000
Nb      13.73157414       0.56772078       9.31606228       0.00000000       0.00000000       0.00000000
Nb      19.32072644      10.03264213      12.87071826       0.00000000       0.00000000       0.00000000
Nb       2.72940868      15.26006010       7.24829770       0.00000000       0.00000000       0.00000000
Nb       8.32467007      15.06229720       6.45091391       0.00000000       0.00000000       0.00000000
Nb      15.01220926       8.24006395      15.21227949       0.00000000       0.00000000       0.00000000
Nb      16.35073001      12.97946286       7.50979992       0.00000000       0.00000000       0.00000000
Nb       3.78563359       8.20247232      15.91011076       0.00000000       0.00000000       0.00000000
Nb      19.07767017      14.78950819       6.62643341       0.00000000       0.00000000       0.00000000
Nb      13.65523608      18.38444777      13.30242725       0.00000000       0.00000000       0.00000000
Nb       7.19160418      18.12325825       8.31577935       0.00000000       0.00000000       0.00000000
Nb      13.63468419      10.84600340       9.72227366       0.00000000       0.00000000       0.00000000
Nb      17.65118694      14.98886928      13.34333317       0.00000000       0.00000000       0.00000000
Nb      13.51073890      10.48986002      12.80328104       0.00000000       0.00000000       0.00000000
Ta       9.23321463      17.08074290      16.60575840       0.00000000       0.00000000       0.00000000
Ta       9.61118409       9.82428373      10.34854414       0.00000000       0.00000000       0.00000000
Ta       6.42980734      16.22549041      15.01109829       0.00000000       0.00000000       0.00000000
Ta       2.71504570      11.16585882       8.93399335       0.00000000       0.00000000       0.00000000
Ta      10.61009162      18.42155065       8.58944982       0.00000000       0.00000000       0.00000000
Ta      18.96432509       0.51745035       9.95711829       0.00000000       0.00000000       0.00000000
Ta      13.53147310      13.82387580      13.30022853       0.00000000       0.00000000       0.00000000
Ta      21.33212311      18.69735116       8.73296888       0.00000000       0.00000000       0.00000000
Ta      16.64098892       1.12497344       8.53763061       0.00000000       0.00000000       0.00000000
Ta       4.17995767      15.15377313      12.94705410       0.00000000       0.00000000       0.00000000
Ta      22.70588554      15.87811081      12.32534436       0.00000000       0.00000000       0.00000000
Ta      11.79795227       8.17103316       9.60167820       0.00000000       0.00000000       0.00000000
Ta      13.62993734       7.20708457      12.08632895       0.00000000       0.00000000       0.00000000
Ta      14.84055160       5.04043460      15.65704802       0.00000000       0.00000000       0.00000000
Ta       4.95452238       3.70532145      15.82732479       0.00000000       0.00000000       0.00000000
Ta       6.99916739      12.50809203      12.53396155       0.00000000       0.00000000       0.00000000
Ta      20.04358152      16.54128842      17.04993115       0.00000000       0.00000000       0.00000000
Ta      10.55645482      10.27179468       7.42512943       0.00000000       0.00000000       0.00000000
Ta      22.13795415      15.19812899      17.26983310       0.00000000       0.00000000       0.00000000
Ta      14.96785037      19.07736958      15.72364521       0.00000000       0.00000000       0.00000000
Ta       4.74982955      12.86762645       9.46384163       0.00000000       0.00000000       0.00000000
Ta      14.33579999      11.91852996       9.46018837       0.00000000       0.00000000       0.00000000
Ta      11.76259192       1.49176749      15.41520818       0.00000000       0.00000000       0.00000000
Ta      19.74287615       7.00321114      14.82617948       0.00000000       0.00000000       0.00000000
Ta       6.65557572       9.98466701       9.74760840       0.00000000       0.00000000       0.00000000
Ta       6.01180064       6.68034963      11.27899265       0.00000000       0.00000000       0.00000000
Ta      20.28412491      10.26223945      16.09015455       0.00000000       0.00000000       0.00000000
Ta      18.36158055       8.41209150       7.44591879       0.00000000       0.00000000       0.00000000
Ta      16.80915024       3.15163640      10.82155883       0.00000000       0.00000000       0.00000000
Ti      11.45251422      11.45251422      11.96281572       0.00000000       0.00000000       0.00000000
Ti       4.14365319      16.60992514      16.22436826       0.00000000       0.00000000       0.00000000
Ti       8.69043120      11.51392028      15.54462897       0.00000000       0.00000000       0.00000000
Ti      15.25232550       1.83105204      14.15513573       0.00000000       0.00000000       0.00000000
Ti      19.80844092       9.73454872      10.25443269       0.00000000       0.00000000       0.00000000
Ti      11.24900150       2.31929177      10.30460336       0.00000000       0.00000000       0.00000000
Ti      22.39774782       4.61294740       7.34218425       0.00000000       0.00000000       0.00000000
Ti      14.11185734       3.09370319       8.84242877       0.00000000       0.00000000       0.00000000
Ti       8.51423411       0.91184156      16.75345378       0.00000000       0.00000000       0.00000000
Ti      18.86490748       5.72729646       6.91141501       0.00000000       0.00000000       0.00000000
Ti      21.44365334       7.26899598       8.25752784       0.00000000       0.00000000       0.00000000
Ti      15.69400210      17.91131557      10.89563668       0.00000000       0.00000000       0.00000000
Ti       3.57177579       5.17507601      13.41159008       0.00000000       0.00000000       0.00000000
Ti      12.26579234       8.37103951      15.86479004       0.00000000       0.00000000       0.00000000
Ti       3.40243941      18.46936557       6.78104273       0.00000000       0.00000000       0.00000000
Ti      13.11392473      14.83939544      15.92268627       0.00000000       0.00000000       0.00000000
Ti      21.53443573      11.51945057      10.22861852       0.00000000       0.00000000       0.00000000
Ti       5.45370959      19.14000167      15.59309486       0.00000000       0.00000000       0.00000000
Ti       2.07904185       6.25786479      11.08179039       0.00000000       0.00000000       0.00000000
Ti       8.65713460      18.29986666      12.41637531       0.00000000       0.00000000       0.00000000
Ti      17.27107013      12.13259198       9.71283128       0.00000000       0.00000000       0.00000000
Ti       4.72830835       2.95590704      11.91866149       0.00000000       0.00000000       0.00000000
Ti      16.01033624      16.22202959      12.37627716       0.00000000       0.00000000       0.00000000
Ti      19.81751869       1.67305133      12.99153873       0.00000000       0.00000000       0.00000000
Zr       5.62668339      10.59002237      14.39078333       0.00000000       0.00000000       0.00000000
Zr      17.38435371       4.20624494      13.60243543       0.00000000       0.00000000       0.00000000
Zr      11.08538170       1.04578301       7.75031725       0.00000000       0.00000000       0.00000000
Zr       3.04834323       0.73678616      13.12146025       0.00000000       0.00000000       0.00000000
Zr      10.32596986      15.49591681      13.60379838       0.00000000       0.00000000       0.00000000
Zr      12.17249160       3.46141900       6.65267489       0.00000000       0.00000000       0.00000000
Zr       2.66467878      10.36639753      14.03057748       0.00000000       0.00000000       0.00000000
Zr       2.88804661      13.35317119      16.63580933       0.00000000       0.00000000       0.00000000
Zr      22.64149156       9.81158648       7.44439284       0.00000000       0.00000000       0.00000000
Zr      19.31949642      16.54957014      11.64936385       0.00000000       0.00000000       0.00000000
Zr       7.43283112      14.93666514      11.38049474       0.00000000       0.00000000       0.00000000
Zr      16.45917625      10.22603431       7.11362080       0.00000000       0.00000000       0.00000000
Zr      16.90166872       9.39499046      10.72718968       0.00000000       0.00000000       0.00000000
Zr      10.34601278      14.94797308       8.45005949       0.00000000       0.00000000       0.00000000
Zr      17.74600487      18.54079055      16.41266430       0.00000000       0.00000000       0.00000000
Zr      14.83093902      11.49558004      15.09180482       0.00000000       0.00000000       0.00000000
Zr       2.00827684       2.40580657      17.05373596       0.00000000       0.00000000       0.00000000
Zr      12.81091328       4.29942496      13.52156208       0.00000000       0.00000000       0.00000000
Zr       2.55522555      17.50105454      13.59061640       0.00000000       0.00000000       0.00000000
Zr       9.26225506       3.54193915       7.93249291       0.00000000       0.00000000       0.00000000
Zr       9.65420901       7.21002662       6.96256673       0.00000000       0.00000000       0.00000000
Zr      20.68411428      13.36983892      14.29673159       0.00000000       0.00000000       0.00000000
Zr      22.73105233       7.16396598      14.91386732       0.00000000       0.00000000       0.00000000
Zr       9.30015990       5.75987305      13.96208882       0.00000000       0.00000000       0.00000000
Zr       3.97139632       1.34905093       7.62181460       0.00000000       0.00000000       0.00000000
Zr       9.41694510       2.45482966      13.68776475       0.00000000       0.00000000       0.00000000
C       16.33163001      22.45492489       8.95915307       0.00000000       0.00000000       0.00000000
C       19.52551645      20.02873773       8.07640468       0.00000000       0.00000000       0.00000000
C       10.37428404      22.82484308      12.56288022       0.00000000       0.00000000       0.00000000
C       22.22624882      19.56557781       7.12635849       0.00000000       0.00000000       0.00000000
C       20.97272296      21.90528260      14.37160698       0.00000000       0.00000000       0.00000000
C        7.15356847      22.00652224      10.86868226       0.00000000       0.00000000       0.00000000
C       14.42842125      19.88625081       9.91458067       0.00000000       0.00000000       0.00000000
C        2.91364415      21.33741233      15.24077519       0.00000000       0.00000000       0.00000000
C        7.59306841      20.62705337       8.17268201       0.00000000       0.00000000       0.00000000
C        7.26945911      21.35121500      14.76606733       0.00000000       0.00000000       0.00000000
C        6.37875772      22.23418753      14.50057042       0.00000000       0.00000000       0.00000000
C       16.85796276      19.74635452       8.69129090       0.00000000       0.00000000       0.00000000
C       19.01600085      20.05643935      12.25029243       0.00000000       0.00000000       0.00000000
C        9.68794607      22.70362857      16.94907528       0.00000000       0.00000000       0.00000000
C       13.04029947      20.28504823       9.62728390       0.00000000       0.00000000       0.00000000
C       11.98337605      19.45343795      12.11625214       0.00000000       0.00000000       0.00000000
C       11.43608784      22.79601500       7.31006267       0.00000000       0.00000000       0.00000000
C       21.96766917      20.76407679      10.54891180       0.00000000       0.00000000       0.00000000
C       17.57473228      20.64739573      16.62296891       0.00000000       0.00000000       0.00000000
C        4.42363457      22.34287216       8.66642966       0.00000000       0.00000000       0.00000000
C       18.29399195      20.42439494      15.39766470       0.00000000       0.00000000       0.00000000
C        2.23259115      20.68646638      13.90655720       0.00000000       0.00000000       0.00000000
C       17.76565241      19.99275417      11.86832292       0.00000000       0.00000000       0.00000000
C        9.59532121      19.86226455      15.72870439       0.00000000       0.00000000       0.00000000
C        3.06213050      21.96398246       9.08256015       0.00000000       0.00000000       0.00000000
C       18.10245305      22.59693362      16.06109144       0.00000000       0.00000000       0.00000000
Hf      15.26952272      21.67150374      10.58540634       0.00000000       0.00000000       0.00000000
Hf       9.75256485      21.51270883       7.09814226       0.00000000       0.00000000       0.00000000
Hf       5.13200573      22.83516933      11.00789655       0.00000000       0.00000000       0.00000000
Hf      18.54291285      21.15351574       9.48807231       0.00000000       0.00000000       0.00000000
Hf       5.11593060      20.30441565       7.75666075       0.00000000       0.00000000       0.00000000
Hf      12.31021740      20.59371460      16.42243192       0.00000000       0.00000000       0.00000000
Hf      21.27576243      20.21131793      12.38152118       0.00000000       0.00000000       0.00000000
Nb      22.36850176      20.85581495      15.02267715       0.00000000       0.00000000       0.00000000
Nb       4.85332586      20.49477093      13.45974123       0.00000000       0.00000000       0.00000000
Nb      16.58441557      22.07054299       6.88355623       0.00000000       0.00000000       0.00000000
Ta       6.55662337      20.15503440      10.40380451       0.00000000       0.00000000       0.00000000
Ta      20.03297637      21.97173726      16.31527571       0.00000000       0.00000000       0.00000000
Ta       9.25788233      21.15304813      13.57793236       0.00000000       0.00000000       0.00000000
Ti      22.37137032      21.60789359       7.07939959       0.00000000       0.00000000       0.00000000
Ti      12.98967965      20.99736475       7.88523563       0.00000000       0.00000000       0.00000000
Ti      19.12405839      21.42550066      13.60038698       0.00000000       0.00000000       0.00000000
Ti       2.14847464      21.06839082      10.88185348       0.00000000       0.00000000       0.00000000
Ti      19.71421230      22.25940949       6.84680465       0.00000000       0.00000000       0.00000000
Zr      15.37436004      22.35890774      14.06440146       0.00000000       0.00000000       0.00000000
Zr      21.95849776      22.36049263       9.60986633       0.00000000       0.00000000       0.00000000
Zr      10.94839564      20.64621864      10.33991751       0.00000000       0.00000000       0.00000000
Zr       8.02954333      20.81524681      17.28327572       0.00000000       0.00000000       0.00000000
860
Lattice="22.90502845 0.0 0.0 0.0 22.90502845 0.0 0.0 0.0 22.90502845" Properties=species:S:1:pos:R:3:momenta:R:3 pbc="T T T"
C       19.99091443       7.48617555       2.86350752       0.00000000       0.00000000       0.00000000
C       11.46315026      16.56397962       0.69789535       0.00000000       0.00000000       0.00000000
C       16.99037656       8.75457361       3.95163046       0.00000000       0.00000000       0.00000000
C       15.16672280      12.91510818       4.44274133       0.00000000       0.00000000       0.00000000
C        2.60505458       1.05013721      18.73378403       0.00000000       0.00000000       0.00000000
C        3.57142143      15.14947627       6.24932261       0.00000000       0.00000000       0.00000000
C        9.25308280      10.55652143       1.95930547       0.00000000       0.00000000       0.00000000
C       17.13109193      12.08420951      18.80218997       0.00000000       0.00000000       0.00000000
C       16.05670406      18.19742321       6.00195537       0.00000000       0.00000000       0.00000000
C        2.88403516       5.35524639       0.33030199       0.00000000       0.00000000       0.00000000
C        8.40823238       0.34285021      18.86187655       0.00000000       0.00000000       0.00000000
C       11.36838455       6.41494328       1.51453877       0.00000000       0.00000000       0.00000000
C        3.64576634      16.35692506      19.18692444       0.00000000       0.00000000       0.00000000
C       19.91749163      10.87731157      17.53796898       0.00000000       0.00000000       0.00000000
C        4.73594219      19.29158546      18.51482427       0.00000000       0.00000000       0.00000000
C        8.52453794      15.41469839      22.43995826       0.00000000       0.00000000       0.00000000
C       20.52488270       5.74761909      20.45507737       0.00000000       0.00000000       0.00000000
C        8.36369189       7.62884434       2.52385023       0.00000000       0.00000000       0.00000000
C        8.38938330       3.68486869      20.90537226       0.00000000       0.00000000       0.00000000
C        1.62186842      17.29954424       4.55477848       0.00000000       0.00000000       0.00000000
C       22.70390860      21.80386723       4.85310548       0.00000000       0.00000000       0.00000000
C       10.22477638      11.33893417      21.99111898       0.00000000       0.00000000       0.00000000
C        0.74986176      19.86080189      22.54548249       0.00000000       0.00000000       0.00000000
C       19.89564519       9.65960267       5.12173290       0.00000000       0.00000000       0.00000000
C       11.35483102      14.27093658      21.31701322       0.00000000       0.00000000       0.00000000
C        3.62895801      18.56467707      21.55064873       0.00000000       0.00000000       0.00000000
C        4.59907625      11.31322410      21.91794288       0.00000000       0.00000000       0.00000000
C       17.04828884      22.26537823      17.76757929       0.00000000       0.00000000       0.00000000
C       14.07652689      20.12025695       4.07387790       0.00000000       0.00000000       0.00000000
C       21.62132592      18.31918099       5.90534094       0.00000000       0.00000000       0.00000000
C       16.96633228      10.91550134       6.29912256       0.00000000       0.00000000       0.00000000
C       13.29576412      22.70535788      21.93612015       0.00000000       0.00000000       0.00000000
C       22.58453384      19.52239201       2.63055513       0.00000000       0.00000000       0.00000000
C       14.17232573      13.33580095      20.18300188       0.00000000       0.00000000       0.00000000
C        2.69978168       3.31114767      20.99578656       0.00000000       0.00000000       0.00000000
C        8.44219341      22.34425831       6.13225803       0.00000000       0.00000000       0.00000000
C        3.58555694      12.83335509       4.18189330       0.00000000       0.00000000       0.00000000
C       16.19523186      13.56747496       1.34605098       0.00000000       0.00000000       0.00000000
C        6.80482391       1.34449610       4.26614956       0.00000000       0.00000000       0.00000000
C        1.77180446       6.73596249       5.79221549       0.00000000       0.00000000       0.00000000
C       13.30345419      12.47835097       0.22107473       0.00000000       0.00000000       0.00000000
C        7.54132770      16.82376223       4.77362192       0.00000000       0.00000000       0.00000000
C        3.72928363       8.25033970      22.49143787       0.00000000       0.00000000       0.00000000
C        9.20598859       8.34547810      22.57312080       0.00000000       0.00000000       0.00000000
C       11.48761215       1.25169482      19.97776978       0.00000000       0.00000000       0.00000000
C        6.52442705       5.02994090      19.06038177       0.00000000       0.00000000       0.00000000
C       11.27864275      12.19944927      19.01955435       0.00000000       0.00000000       0.00000000
C       16.04336497       0.97592458       0.26576141       0.00000000       0.00000000       0.00000000
C        4.71776280       1.22174449       0.06991577       0.00000000       0.00000000       0.00000000
C       22.00456558       1.05322743       0.09184330       0.00000000       0.00000000       0.00000000
C       18.75983735      20.38917273      19.51163941       0.00000000       0.00000000       0.00000000
C       12.24232392      17.26574206      20.45352638       0.00000000       0.00000000       0.00000000
C        0.02290726       8.63519843       3.75868847       0.00000000       0.00000000       0.00000000
C        6.56189864       7.39647796      21.24092649       0.00000000       0.00000000       0.00000000
C       15.23856364      20.67735924       0.93249987       0.00000000       0.00000000       0.00000000
C        5.13236982       3.60617958       3.18758578       0.00000000       0.00000000       0.00000000
C        8.22321963      13.03482950      20.05234064       0.00000000       0.00000000       0.00000000
C       20.94293913       0.47241290       3.11056296       0.00000000       0.00000000       0.00000000
C        0.18089761      12.01536067      18.82566266       0.00000000       0.00000000       0.00000000
C        0.84468461       4.90932191      19.21122368       0.00000000       0.00000000       0.00000000
C       11.41485272      21.21239396       5.16976831       0.00000000       0.00000000       0.00000000
C       19.15639047       6.81439221       5.82386787       0.00000000       0.00000000       0.00000000
C        5.46213115      19.12950805       2.75502960       0.00000000       0.00000000       0.00000000
C        4.48861538       5.98066503       4.58566985       0.00000000       0.00000000       0.00000000
C       15.08890253      18.37418571      21.64969251       0.00000000       0.00000000       0.00000000
C       18.28966361      11.70193006       3.24019781       0.00000000       0.00000000       0.00000000
C        7.38090626      12.37008379       0.20488420       0.00000000       0.00000000       0.00000000
C       14.17326432       2.88636831      21.22360866       0.00000000       0.00000000       0.00000000
C        7.31431545       6.77588680       5.72271815       0.00000000       0.00000000       0.00000000
C        5.63530150      12.16877965      18.85945602       0.00000000       0.00000000       0.00000000
C        6.61875962      15.17925668      18.20012402       0.00000000       0.00000000       0.00000000
C       20.85604040      12.98308516       4.31281854       0.00000000       0.00000000       0.00000000
C       10.35504228       3.18280180       2.33234901       0.00000000       0.00000000       0.00000000
C       19.47092735      10.42613181      20.31390509       0.00000000       0.00000000       0.00000000
C       12.19403402       7.32349634      21.53561612       0.00000000       0.00000000       0.00000000
C        3.68571886       2.84175759       5.54957569       0.00000000       0.00000000       0.00000000
C        0.05172649       6.43883092       1.48171989       0.00000000       0.00000000       0.00000000
C        6.43802788      22.02172711       2.04887716       0.00000000       0.00000000       0.00000000
C       16.15133902      15.78771652       3.70882099       0.00000000       0.00000000       0.00000000
C       19.90859577       2.85568121      21.35147526       0.00000000       0.00000000       0.00000000
C       19.76129387      15.58270769      22.14423217       0.00000000       0.00000000       0.00000000
C        9.35317310       6.19301306      20.19093347       0.00000000       0.00000000       0.00000000
C       17.97358235       6.51988867      21.75681640       0.00000000       0.00000000       0.00000000
C       13.36063634      14.67835012       2.75097361       0.00000000       0.00000000       0.00000000
C       13.11075401       8.08828676      18.54930920       0.00000000       0.00000000       0.00000000
C       16.14029207       5.64182297       4.73876153       0.00000000       0.00000000       0.00000000
C       18.10841492      17.44216280      20.15981702       0.00000000       0.00000000       0.00000000
C       19.14744075      12.42317008       0.06647133       0.00000000       0.00000000       0.00000000
C        0.86687320      11.93768831       3.06883401       0.00000000       0.00000000       0.00000000
C       14.99024180       3.61888881      18.37642108       0.00000000       0.00000000       0.00000000
C       18.96647626      22.85307658      21.93610847       0.00000000       0.00000000       0.00000000
C        2.62232749      15.60443219      22.30974560       0.00000000       0.00000000       0.00000000
C        2.85027922       7.68511578       2.62572683       0.00000000       0.00000000       0.00000000
C        2.66858682      20.37588894       3.78166774       0.00000000       0.00000000       0.00000000
C       20.83053970      18.72675916      21.22734945       0.00000000       0.00000000       0.00000000
C        2.00769097      10.15768655      20.79633739       0.00000000       0.00000000       0.00000000
C        7.58755432       8.07270130      18.35253430       0.00000000       0.00000000       0.00000000
C       12.11859161      15.17972756      18.15610366       0.00000000       0.00000000       0.00000000
C       13.25900610      20.44084319      19.70702900       0.00000000       0.00000000       0.00000000
C       14.08832606      22.52850909       6.31934477       0.00000000       0.00000000       0.00000000
C       16.04287446      19.32154874      18.34567730       0.00000000       0.00000000       0.00000000
C        1.09028200       1.81323120       4.32934158       0.00000000       0.00000000       0.00000000
C       19.99850345       0.55551434      19.01662354       0.00000000       0.00000000       0.00000000
C       10.43463031      19.21852028      18.44473361       0.00000000       0.00000000       0.00000000
C       18.41391625      10.02450050      20.86293766       0.00000000       0.00000000       0.00000000
C       13.91999239       5.04073378       0.59549293       0.00000000       0.00000000       0.00000000
C       18.77906869      17.24752113       4.72093709       0.00000000       0.00000000       0.00000000
C       17.12508392      18.97893874       2.84559589       0.00000000       0.00000000       0.00000000
C       12.43720378      13.85970775       5.75155751       0.00000000       0.00000000       0.00000000
C        5.67720314      14.32499333      21.21195103       0.00000000       0.00000000       0.00000000
C        6.30836451       9.41137930       0.84492821       0.00000000       0.00000000       0.00000000
C       22.84722523       1.60740663      20.08219639       0.00000000       0.00000000       0.00000000
C       15.01403161       6.19983058      20.51803702       0.00000000       0.00000000       0.00000000
C       18.24758247       9.53566841       0.95361362       0.00000000       0.00000000       0.00000000
C       16.01661897       3.27467922       2.46418516       0.00000000       0.00000000       0.00000000
C       17.81100767       1.37147443       4.52579418       0.00000000       0.00000000       0.00000000
C        8.39408436      11.07656542      17.56075304       0.00000000       0.00000000       0.00000000
C       17.98303245      19.67956568      22.72931367       0.00000000       0.00000000       0.00000000
C       12.25953859       4.88773688      19.28106721       0.00000000       0.00000000       0.00000000
C       12.31646096      11.65724428       3.15402928       0.00000000       0.00000000       0.00000000
C       14.86491235       8.37576521      22.70906705       0.00000000       0.00000000       0.00000000
C        0.80327527      14.09390050       5.39011828       0.00000000       0.00000000       0.00000000
C        8.59675302      17.70406780       1.78956821       0.00000000       0.00000000       0.00000000
C       20.87344928      16.28998804      19.09259031       0.00000000       0.00000000       0.00000000
C       17.09208393      16.63781697       0.37751647       0.00000000       0.00000000       0.00000000
C       12.92570260      10.21926990      21.09912093       0.00000000       0.00000000       0.00000000
C        2.00520349       4.62002591       3.66619243       0.00000000       0.00000000       0.00000000
C        0.62737969       7.03803577      21.57171868       0.00000000       0.00000000       0.00000000
C        5.62269585      21.37538794       4.83296093       0.00000000       0.00000000       0.00000000
C       21.82532077      13.71948471       1.41568835       0.00000000       0.00000000       0.00000000
C        1.82903216       2.31781835       1.26950326       0.00000000       0.00000000       0.00000000
C       17.97883099      15.03971130      17.83507492       0.00000000       0.00000000       0.00000000
C        2.55684593      18.04961520       1.58197146       0.00000000       0.00000000       0.00000000
C        1.87430276      22.87087507      21.83787941       0.00000000       0.00000000       0.00000000
C       13.14403193       4.38028464       3.59119284       0.00000000       0.00000000       0.00000000
C       13.45688797      16.96685612       4.96567389       0.00000000       0.00000000       0.00000000
C       17.43983923       7.69755289      21.82242568       0.00000000       0.00000000       0.00000000
C        7.54539885      14.69794303       2.65532771       0.00000000       0.00000000       0.00000000
C       14.08021055       9.61352921       5.09190692       0.00000000       0.00000000       0.00000000
C        4.75150002       9.20101070      19.49771314       0.00000000       0.00000000       0.00000000
C       19.92348408       5.17338655       0.81189725       0.00000000       0.00000000       0.00000000
C        2.94249087      13.27359193      20.00752310       0.00000000       0.00000000       0.00000000
C       15.12391112       0.16307204       3.40626075       0.00000000       0.00000000       0.00000000
C       14.50628605      17.68343957       1.83400105       0.00000000       0.00000000       0.00000000
C       10.50388685      18.16938090       6.01163685       0.00000000       0.00000000       0.00000000
C        7.68045115      22.71975265      21.80576760       0.00000000       0.00000000       0.00000000
C        2.84031248       9.92058819       5.05442054       0.00000000       0.00000000       0.00000000
C        7.58668249       2.30444365       1.23672479       0.00000000       0.00000000       0.00000000
C       10.63451928       2.30527744      20.35550796       0.00000000       0.00000000       0.00000000
C       11.30525635       4.33350179      22.21602263       0.00000000       0.00000000       0.00000000
C       16.96566628       3.93087823      22.40350829       0.00000000       0.00000000       0.00000000
C       11.23124494      18.67783605       3.07586930       0.00000000       0.00000000       0.00000000
C       18.93628731       2.17637003       1.36665834       0.00000000       0.00000000       0.00000000
C        4.63111741      13.52597296       1.33765856       0.00000000       0.00000000       0.00000000
C       21.66586888      16.17392051       3.54173977       0.00000000       0.00000000       0.00000000
C       11.31487374      22.25968427      17.69296740       0.00000000       0.00000000       0.00000000
C       13.07050778       6.61207034       5.77128795       0.00000000       0.00000000       0.00000000
C        5.67454679       1.93089839      19.73159268       0.00000000       0.00000000       0.00000000
C        9.54031206      18.37934573      21.58206815       0.00000000       0.00000000       0.00000000
C        0.62972860      17.38086539      20.31292413       0.00000000       0.00000000       0.00000000
C       21.79557960       3.32812516       2.61487293       0.00000000       0.00000000       0.00000000
C        5.87421474      21.72018484      17.72726505       0.00000000       0.00000000       0.00000000
C        9.04441975       2.45310697      20.69217881       0.00000000       0.00000000       0.00000000
C       12.31951447       1.25707167       4.37910413       0.00000000       0.00000000       0.00000000
C       12.44003308      19.62328730      22.87208482       0.00000000       0.00000000       0.00000000
C        5.70584999      10.93444260       6.32530284       0.00000000       0.00000000       0.00000000
C       14.46248460      15.39492150      22.43224616       0.00000000       0.00000000       0.00000000
C        1.85983820       7.83507446      18.36373558       0.00000000       0.00000000       0.00000000
C       22.76263455       3.98140392      22.41169693       0.00000000       0.00000000       0.00000000
C        9.43057121       2.50522095       5.37989108       0.00000000       0.00000000       0.00000000
C       19.77389054      17.99359407       1.72400038       0.00000000       0.00000000       0.00000000
C       10.33601333       9.06982100      19.51608592       0.00000000       0.00000000       0.00000000
C       10.99501475      10.82835897       6.04978878       0.00000000       0.00000000       0.00000000
C       14.26921982      11.37799195      18.32093863       0.00000000       0.00000000       0.00000000
C       14.28089150       0.55210037      18.83553757       0.00000000       0.00000000       0.00000000
C       10.48659958       0.77668984       0.19842378       0.00000000       0.00000000       0.00000000
C        4.57187442      15.96399153       3.47425896       0.00000000       0.00000000       0.00000000
C        0.85739228      15.14537027      18.13305179       0.00000000       0.00000000       0.00000000
C       15.98602805      11.47431054      21.99614949       0.00000000       0.00000000       0.00000000
C        8.17457433       9.77372333       4.99510614       0.00000000       0.00000000       0.00000000
C        9.38743909      12.75722249       4.31675823       0.00000000       0.00000000       0.00000000
C        6.49552229      19.63771595      22.56799052       0.00000000       0.00000000       0.00000000
C        5.06892379       4.77361594       4.29082024       0.00000000       0.00000000       0.00000000
C        8.40824609      20.14950250       3.94767839       0.00000000       0.00000000       0.00000000
C       20.96010702      21.02637900       0.74003399       0.00000000       0.00000000       0.00000000
C       11.12913564       8.53199011       3.84569719       0.00000000       0.00000000       0.00000000
C        1.01743619      22.25599962       1.90333401       0.00000000       0.00000000       0.00000000
C       16.99616253       6.22023266       1.72128491       0.00000000       0.00000000       0.00000000
C       17.96686520      21.90492601       2.09385741       0.00000000       0.00000000       0.00000000
C       16.00967649       6.57772639      17.64271979       0.00000000       0.00000000       0.00000000
C       22.61356448      14.64191870      21.11233313       0.00000000       0.00000000       0.00000000
C       17.13994732       1.64529223      20.24412215       0.00000000       0.00000000       0.00000000
C        3.62481600      10.50523864       1.88954122       0.00000000       0.00000000       0.00000000
C       17.11187493      14.39517339      20.98254790       0.00000000       0.00000000       0.00000000
C       15.11240684      10.47107361       2.06168101       0.00000000       0.00000000       0.00000000
C        7.84611311       4.57734480       3.18515191       0.00000000       0.00000000       0.00000000
C       22.80168968      10.89083299       6.08877196       0.00000000       0.00000000       0.00000000
C        5.60643506       4.28759946      22.05398171       0.00000000       0.00000000       0.00000000
C       10.11236563      13.50810900       1.36040410       0.00000000       0.00000000       0.00000000
C       17.03477977      21.39203177       5.29984777       0.00000000       0.00000000       0.00000000
C        9.48363431       0.16408713       3.03127744       0.00000000       0.00000000       0.00000000
C        1.80161971      20.35869702      19.59572649       0.00000000       0.00000000       0.00000000
C       21.90277476      11.29413315      21.79514142       0.00000000       0.00000000       0.00000000
C       21.92321823      21.65195349      20.63222744       0.00000000       0.00000000       0.00000000
C        7.51579052      10.22641749      20.76306126       0.00000000       0.00000000       0.00000000
C        5.64684261       6.44236862       1.46961854       0.00000000       0.00000000       0.00000000
C       20.08541577      13.21700184      19.82869514       0.00000000       0.00000000       0.00000000
C        9.53775364      20.80712870       0.86123923       0.00000000       0.00000000       0.00000000
C       18.77607339      14.78791328       2.37404300       0.00000000       0.00000000       0.00000000
C       16.17959289      21.57909123      20.94836861       0.00000000       0.00000000       0.00000000
C        1.43239385      15.09641147       2.47502926       0.00000000       0.00000000       0.00000000
C        6.79099147      13.94424862       5.50682136       0.00000000       0.00000000       0.00000000
C       17.68101442       4.63964059      19.48348791       0.00000000       0.00000000       0.00000000
C        4.56022365      21.45849711      20.64596682       0.00000000       0.00000000       0.00000000
C       15.75112930       9.38644379      19.63208215       0.00000000       0.00000000       0.00000000
C       10.18353970       5.54843141       4.58605440       0.00000000       0.00000000       0.00000000
C       20.66275406       2.78423831       5.51153710       0.00000000       0.00000000       0.00000000
C        3.75067226       0.44381878       3.08287187       0.00000000       0.00000000       0.00000000
C        5.76614336      16.66842161       0.63724069       0.00000000       0.00000000       0.00000000
C       20.87463945       8.10927952      22.65744336       0.00000000       0.00000000       0.00000000
C       12.39711402      21.92446643       2.20185346       0.00000000       0.00000000       0.00000000
C        1.72939525      12.47401091       0.10044767       0.00000000       0.00000000       0.00000000
C        0.74841145       9.46588974       0.68710696       0.00000000       0.00000000       0.00000000
C        0.00371220      22.38511634      17.72892343       0.00000000       0.00000000       0.00000000
C        5.30215028      22.89210313      17.63299274       0.00000000       0.00000000       0.00000000
C        3.51715217      20.91146250       0.82235218       0.00000000       0.00000000       0.00000000
C       10.41398721      15.76571926       3.64615641       0.00000000       0.00000000       0.00000000
C        9.37299497      16.14350664      19.30677195       0.00000000       0.00000000       0.00000000
C       21.72579755      19.21605118      18.41121993       0.00000000       0.00000000       0.00000000
C        5.46666967       8.72949081       3.75665585       0.00000000       0.00000000       0.00000000
C       17.97941636      14.13389810       5.64162326       0.00000000       0.00000000       0.00000000
C       20.88848056       3.35346998      18.01063833       0.00000000       0.00000000       0.00000000
C       15.16792629       2.46299429       5.65918741       0.00000000       0.00000000       0.00000000
C       12.10704343       9.55072973       1.03912694       0.00000000       0.00000000       0.00000000
C        3.79421224       6.00652084      20.30225607       0.00000000       0.00000000       0.00000000
C        2.59900075       0.02401082       6.17089648       0.00000000       0.00000000       0.00000000
C        3.87964969       4.04395665      17.93330796       0.00000000       0.00000000       0.00000000
C        6.54324661      17.35970330      20.38643063       0.00000000       0.00000000       0.00000000
C        7.66880423      20.34426719      19.63701825       0.00000000       0.00000000       0.00000000
C        9.46052653       3.83494477      17.99026073       0.00000000       0.00000000       0.00000000
C       13.27320582       1.96736232       1.24938376       0.00000000       0.00000000       0.00000000
C       19.88849772      20.23593228       4.16093873       0.00000000       0.00000000       0.00000000
C       21.85048048       5.77111984       4.49963044       0.00000000       0.00000000       0.00000000
C        8.39289618       5.36430351       0.19186889       0.00000000       0.00000000       0.00000000
C        6.44972473      11.77433815       3.05666009       0.00000000       0.00000000       0.00000000
C        4.71213916      18.04578826       5.54067918       0.00000000       0.00000000       0.00000000
C       21.79567886       8.92105769      19.61010476       0.00000000       0.00000000       0.00000000
C        4.55439873       3.54785639       1.99353171       0.00000000       0.00000000       0.00000000
C       18.44092863       7.74435304      18.56518885       0.00000000       0.00000000       0.00000000
C       18.67618459       4.44257689       3.81272473       0.00000000       0.00000000       0.00000000
C       22.59584591      16.84725466       0.44396195       0.00000000       0.00000000       0.00000000
C       14.11554076       7.54057707       2.75305280       0.00000000       0.00000000       0.00000000
C       15.18988399      16.29891382      19.27850485       0.00000000       0.00000000       0.00000000
C       21.04177190      10.80452134       1.93932558       0.00000000       0.00000000       0.00000000
C       10.46270582      21.36429736      20.71915148       0.00000000       0.00000000       0.00000000
C        2.95863696      11.00243206      17.68785432       0.00000000       0.00000000       0.00000000
Hf      12.16158643       6.48405882       3.63732390       0.00000000       0.00000000       0.00000000
Hf      18.95911169      15.27639280      19.81005664       0.00000000       0.00000000       0.00000000
Hf       6.37227691       8.79145506       6.19687489       0.00000000       0.00000000       0.00000000
Hf      17.94563142       6.73469245       3.75167632       0.00000000       0.00000000       0.00000000
Hf       1.08796791       6.66969323       3.61924237       0.00000000       0.00000000       0.00000000
Hf       3.71317816      13.43223605      22.16323835       0.00000000       0.00000000       0.00000000
Hf       9.43647549       2.69554457       0.33756773       0.00000000       0.00000000       0.00000000
Hf       2.46974762      13.06539831       2.05668057       0.00000000       0.00000000       0.00000000
Hf       3.39960344       1.27429978      20.97040391       0.00000000       0.00000000       0.00000000
Hf       6.64265256       6.79165487       3.57086563       0.00000000       0.00000000       0.00000000
Hf      11.30558075       3.25215764       4.60311742       0.00000000       0.00000000       0.00000000
Hf      11.46428464      19.29335555      21.03989522       0.00000000       0.00000000       0.00000000
Hf      17.72021671       9.92717301      18.50831061       0.00000000       0.00000000       0.00000000
Hf      19.63909904      22.81746910       1.16432368       0.00000000       0.00000000       0.00000000
Hf       9.48199302       5.57408051       2.14334632       0.00000000       0.00000000       0.00000000
Hf       4.01850258      20.05603276       5.48141823       0.00000000       0.00000000       0.00000000
Hf      14.97408671       5.35745613       2.54254692       0.00000000       0.00000000       0.00000000
Hf      10.47136944      16.24150142      21.34837788       0.00000000       0.00000000       0.00000000
Hf      12.67377900      16.77915878       2.84874364       0.00000000       0.00000000       0.00000000
Hf      21.58741975       0.83263483       5.70734420       0.00000000       0.00000000       0.00000000
Hf       5.62391152       7.24138360      19.24864755       0.00000000       0.00000000       0.00000000
Hf      14.07846372       4.67014556       5.64382130       0.00000000       0.00000000       0.00000000
Hf      20.66607001       8.81563095      17.55834230       0.00000000       0.00000000       0.00000000
Hf      20.42848670      20.94656401      18.35335202       0.00000000       0.00000000       0.00000000
Hf      15.80261532      10.70283163       4.15904967       0.00000000       0.00000000       0.00000000
Hf      15.24087478      18.29122681       3.94446821       0.00000000       0.00000000       0.00000000
Hf       0.61185145      19.87139178       4.55730797       0.00000000       0.00000000       0.00000000
Hf       1.27408253       9.83793322      18.71949125       0.00000000       0.00000000       0.00000000
Hf      16.97930523       1.12898970       2.50186838       0.00000000       0.00000000       0.00000000
Hf      10.44939256      18.66194717       0.84506601       0.00000000       0.00000000       0.00000000
Hf       3.70586295      16.10023506       1.31107194       0.00000000       0.00000000       0.00000000
Hf      12.26251741       1.74317996      22.11694065       0.00000000       0.00000000       0.00000000
Hf      12.10354292      22.15429973      19.71071964       0.00000000       0.00000000       0.00000000
Hf       0.53754498      14.84411749       0.38954319       0.00000000       0.00000000       0.00000000
Hf      12.15086182      10.17863202      18.99177506       0.00000000       0.00000000       0.00000000
Hf      11.61313545      16.00012153       5.71580752       0.00000000       0.00000000       0.00000000
Hf       5.54179864      17.25111082      18.27797987       0.00000000       0.00000000       0.00000000
Hf      18.36554696      12.44995520      20.74939400       0.00000000       0.00000000       0.00000000
Hf      13.10887742       9.42867600       3.04917732       0.00000000       0.00000000       0.00000000
Hf      18.90304240      17.74686605      22.21078924       0.00000000       0.00000000       0.00000000
Hf       7.55365010      20.03143265       1.72623599       0.00000000       0.00000000       0.00000000
Hf      22.06354030       8.33075195       1.83741623       0.00000000       0.00000000       0.00000000
Hf       0.87600068      22.47504038      19.93671759       0.00000000       0.00000000       0.00000000
Hf      16.24751116       8.63470791       1.73814128       0.00000000       0.00000000       0.00000000
Hf      15.79920318       5.89481637      22.60041895       0.00000000       0.00000000       0.00000000
Hf       7.56468867      17.52759988      22.44985936       0.00000000       0.00000000       0.00000000
Hf      17.98411068      19.35915552       5.25535101       0.00000000       0.00000000       0.00000000
Hf       9.99615246      10.59947349       4.11498301       0.00000000       0.00000000       0.00000000
Hf       4.56456689       4.01207845      20.08690730       0.00000000       0.00000000       0.00000000
Hf      15.26671262      21.28180598      18.81393134       0.00000000       0.00000000       0.00000000
Hf      19.99126042      10.25776639      22.65854441       0.00000000       0.00000000       0.00000000
Hf       0.39323106      17.21350961       2.56548326       0.00000000       0.00000000       0.00000000
Hf       4.80680373      16.59301672      21.43602796       0.00000000       0.00000000       0.00000000
Hf      10.46535144      20.89458772       2.95855279       0.00000000       0.00000000       0.00000000
Hf      11.58036422      13.58917355       3.79844394       0.00000000       0.00000000       0.00000000
Hf      22.84732204       7.03677540      19.41369288       0.00000000       0.00000000       0.00000000
Hf       6.67573540       4.30449772       1.35733879       0.00000000       0.00000000       0.00000000
Hf      14.38254645      20.53846588      21.80894214       0.00000000       0.00000000       0.00000000
Hf      20.75464376       3.20782633       0.70865413       0.00000000       0.00000000       0.00000000
Hf      20.42276842       5.09568061       2.98881657       0.00000000       0.00000000       0.00000000
Hf      17.62339047      11.55675442       1.31090963       0.00000000       0.00000000       0.00000000
Nb       5.48301659      19.45488350      20.67799498       0.00000000       0.00000000       0.00000000
Nb       4.00136033      11.16426759      19.82352127       0.00000000       0.00000000       0.00000000
Nb       2.99422716       2.48512296       3.54925283       0.00000000       0.00000000       0.00000000
Nb      16.95499240       3.60623976       4.60614518       0.00000000       0.00000000       0.00000000
Nb      19.22385630       5.69829986      18.61108176       0.00000000       0.00000000       0.00000000
Nb      15.16367759       2.96231692       0.47246271       0.00000000       0.00000000       0.00000000
Nb       0.87820413       2.11159002      21.89245493       0.00000000       0.00000000       0.00000000
Nb      15.27687004       7.81191308       4.61020202       0.00000000       0.00000000       0.00000000
Nb      19.06908646       7.19237358       0.87637203       0.00000000       0.00000000       0.00000000
Nb      19.06121583       4.80080400      21.81228248       0.00000000       0.00000000       0.00000000
Nb      22.76365821       9.07007860      21.59101329       0.00000000       0.00000000       0.00000000
Nb      16.59052127       9.62457132      21.57574742       0.00000000       0.00000000       0.00000000
Nb      16.17344543      14.16522254      18.87473115       0.00000000       0.00000000       0.00000000
Nb      21.64448108      16.53297939      21.07566904       0.00000000       0.00000000       0.00000000
Nb       1.58340221      20.10258899       1.53504533       0.00000000       0.00000000       0.00000000
Nb       7.58393384      22.12515289       3.92783995       0.00000000       0.00000000       0.00000000
Nb      12.26607568       3.99865320       1.17281829       0.00000000       0.00000000       0.00000000
Nb      13.43832598      19.91255855       1.92658784       0.00000000       0.00000000       0.00000000
Nb       6.67004511      18.99306736       4.60987947       0.00000000       0.00000000       0.00000000
Nb       4.73795272      18.78408064       0.47721727       0.00000000       0.00000000       0.00000000
Nb      22.47071402      16.22627993       5.40538737       0.00000000       0.00000000       0.00000000
Nb       9.55389388      17.76238828       3.98065237       0.00000000       0.00000000       0.00000000
Nb       3.80888538       3.26920498       0.20482966       0.00000000       0.00000000       0.00000000
Nb      18.11393686       8.63801780       6.22411780       0.00000000       0.00000000       0.00000000
Nb      22.60049980      19.52438840      20.35149921       0.00000000       0.00000000       0.00000000
Nb       8.38743303       6.05406846      18.12038349       0.00000000       0.00000000       0.00000000
Nb      17.89220980      16.85934355       2.51411113       0.00000000       0.00000000       0.00000000
Nb       9.42791195      20.19804993       5.99579097       0.00000000       0.00000000       0.00000000
Nb      19.26183398      12.98787973      17.71650890       0.00000000       0.00000000       0.00000000
Nb      20.62958293      18.28977463       3.91709597       0.00000000       0.00000000       0.00000000
Nb       8.63784557      14.81929363       4.38473205       0.00000000       0.00000000       0.00000000
Nb       1.67167897      15.50365904      20.35492182       0.00000000       0.00000000       0.00000000
Nb      17.83565212       4.24932130       1.60976682       0.00000000       0.00000000       0.00000000
Nb      22.82869987      22.06406272      22.54649941       0.00000000       0.00000000       0.00000000
Nb      14.10978090      10.43513265       0.25796734       0.00000000       0.00000000       0.00000000
Nb       3.76356284      21.31594251      18.71861104       0.00000000       0.00000000       0.00000000
Nb      18.87237730      19.81376998       1.98695108       0.00000000       0.00000000       0.00000000
Nb       4.75931019      13.16963116       6.35965003       0.00000000       0.00000000       0.00000000
Nb      19.63245673       4.59508367       5.90976700       0.00000000       0.00000000       0.00000000
Nb      21.62132610       5.91004262      22.45958295       0.00000000       0.00000000       0.00000000
Nb      10.43220225       0.26875332       5.15671787       0.00000000       0.00000000       0.00000000
Nb      12.03138205       8.50395358       5.79862249       0.00000000       0.00000000       0.00000000
Nb      13.16427346      22.07521370       4.24188936       0.00000000       0.00000000       0.00000000
Nb       8.43393762       8.11702404      20.36475797       0.00000000       0.00000000       0.00000000
Nb       5.40938223       9.15958439      21.55973911       0.00000000       0.00000000       0.00000000
Nb      11.51297197       0.96273412       2.38692415       0.00000000       0.00000000       0.00000000
Nb      19.54596230       2.47352091       3.53224413       0.00000000       0.00000000       0.00000000
Nb       3.49629398      18.22284799       3.50308994       0.00000000       0.00000000       0.00000000
Nb       5.34874641      11.46760857       0.93462080       0.00000000       0.00000000       0.00000000
Nb       7.20003458       5.36767904      20.96575638       0.00000000       0.00000000       0.00000000
Nb      20.11405492      20.99024602      21.57094150       0.00000000       0.00000000       0.00000000
Nb      13.10044755       7.38044329       0.83050466       0.00000000       0.00000000       0.00000000
Ta       2.61100012      15.45433236       4.20243572       0.00000000       0.00000000       0.00000000
Ta      16.56260111       1.21905501      18.25633949       0.00000000       0.00000000       0.00000000
Ta       9.57464693      15.67336142       1.56897348       0.00000000       0.00000000       0.00000000
Ta      20.81546336       0.81741072      20.90544821       0.00000000       0.00000000       0.00000000
Ta      20.79786488      20.57114067       6.06684232       0.00000000       0.00000000       0.00000000
Ta       9.46378924      21.10578128      18.56694026       0.00000000       0.00000000       0.00000000
Ta      13.61822851      17.21946772      22.78878794       0.00000000       0.00000000       0.00000000
Ta      12.04579615      12.38126953      21.20393230       0.00000000       0.00000000       0.00000000
Ta      22.66758713      13.87425958       3.51528265       0.00000000       0.00000000       0.00000000
Ta      13.12552511      13.21336415      18.26377177       0.00000000       0.00000000       0.00000000
Ta       4.41990840      21.42116564       2.81162391       0.00000000       0.00000000       0.00000000
Ta      17.03994109      16.09469172       5.47778640       0.00000000       0.00000000       0.00000000
Ta      19.68750074      18.25910589      18.98681172       0.00000000       0.00000000       0.00000000
Ta      10.21575456       8.54928966       1.73200564       0.00000000       0.00000000       0.00000000
Ta       7.54135159      13.22745038      17.94194624       0.00000000       0.00000000       0.00000000
Ta       8.31628603      12.53279124       2.20630190       0.00000000       0.00000000       0.00000000
Ta      16.98456333      21.54423842       0.20023646       0.00000000       0.00000000       0.00000000
Ta       7.76499651      12.10313931       5.61430738       0.00000000       0.00000000       0.00000000
Ta      18.13804203       1.98710401      22.19032697       0.00000000       0.00000000       0.00000000
Ta       8.22156215       4.79833989       5.16645277       0.00000000       0.00000000       0.00000000
Ta      18.18075094      22.29790730      20.09964807       0.00000000       0.00000000       0.00000000
Ta       7.38299604       7.42977620       0.39387465       0.00000000       0.00000000       0.00000000
Ta       2.99183983       6.07378178      17.85826477       0.00000000       0.00000000       0.00000000
Ta       4.71088581       1.96206695      17.76065891       0.00000000       0.00000000       0.00000000
Ta      11.68545922      21.68108455       0.20928913       0.00000000       0.00000000       0.00000000
Ta      10.98448143      11.57376665       1.01174239       0.00000000       0.00000000       0.00000000
Ta      14.75062860       9.30907403      17.75852088       0.00000000       0.00000000       0.00000000
Ta       2.16690085       3.26754030      18.80816667       0.00000000       0.00000000       0.00000000
Ta      14.95110481       0.78022924      20.88923446       0.00000000       0.00000000       0.00000000
Ta       7.73469149       1.43112904       6.15056217       0.00000000       0.00000000       0.00000000
Ta      20.14087585      12.66999745       2.40166326       0.00000000       0.00000000       0.00000000
Ta      17.93265074      14.69405592       0.07902599       0.00000000       0.00000000       0.00000000
Ta       8.09266907      10.10482856      22.87141196       0.00000000       0.00000000       0.00000000
Ta      19.52083615       9.75275898       3.15653401       0.00000000       0.00000000       0.00000000
Ta       1.27243455      17.89032060      22.39625247       0.00000000       0.00000000       0.00000000
Ta       2.44300273      18.22701500      19.51540763       0.00000000       0.00000000       0.00000000
Ta       7.53356662      15.05748705      20.28017366       0.00000000       0.00000000       0.00000000
Ta      14.25108916      12.78402296       2.19843641       0.00000000       0.00000000       0.00000000
Ta       3.62495805       7.92657308       4.59636638       0.00000000       0.00000000       0.00000000
Ta      22.02488216       1.45495547      18.00761107       0.00000000       0.00000000       0.00000000
Ta       4.68807972      14.30178519      19.02921146       0.00000000       0.00000000       0.00000000
Ta      13.98490690       8.22598933      20.66604799       0.00000000       0.00000000       0.00000000
Ta      22.16703858      21.67281267       2.40544308       0.00000000       0.00000000       0.00000000
Ta       5.26843678      13.51288285       3.26606230       0.00000000       0.00000000       0.00000000
Ta      11.40273018      17.26036280      18.33310340       0.00000000       0.00000000       0.00000000
Ta       0.90193911      11.77238348      21.21662755       0.00000000       0.00000000       0.00000000
Ta      14.43930566      14.91364281       4.73214058       0.00000000       0.00000000       0.00000000
Ta      13.13911582       2.99327737      19.04264082       0.00000000       0.00000000       0.00000000
Ta       7.27827373       9.62201112       2.95155847       0.00000000       0.00000000       0.00000000
Ta      16.18460702       3.55767653      20.33978536       0.00000000       0.00000000       0.00000000
Ta       6.65928449      10.02844413      18.35856572       0.00000000       0.00000000       0.00000000
Ta      22.59105776       5.98137126       6.38766246       0.00000000       0.00000000       0.00000000
Ta      16.22845456      16.32322467      21.17196823       0.00000000       0.00000000       0.00000000
Ta       0.07948029       1.50466877       2.20184736       0.00000000       0.00000000       0.00000000
Ta      14.29177124      22.89099111       1.34471747       0.00000000       0.00000000       0.00000000
Ta       9.43488882       0.33912440      20.83407584       0.00000000       0.00000000       0.00000000
Ta       2.70169932      20.46946459      21.72292758       0.00000000       0.00000000       0.00000000
Ta       1.53686970       4.91707449      21.42204992       0.00000000       0.00000000       0.00000000
Ta      11.28024461       9.21988273      21.98465781       0.00000000       0.00000000       0.00000000
Ta      11.40000381       6.92268509      19.12855659       0.00000000       0.00000000       0.00000000
Ta       6.41380864      12.13864021      21.19513258       0.00000000       0.00000000       0.00000000
Ti       1.74012604      22.80966408       4.01476058       0.00000000       0.00000000       0.00000000
Ti      16.06719400       0.39271061       5.42950916       0.00000000       0.00000000       0.00000000
Ti      16.70269157       6.84375369      19.71220429       0.00000000       0.00000000       0.00000000
Ti       2.63012888       4.87723324       5.61376838       0.00000000       0.00000000       0.00000000
Ti       0.60372745      18.98296092       5.35544887       0.00000000       0.00000000       0.00000000
Ti       4.74569336       6.22094576      22.35335793       0.00000000       0.00000000       0.00000000
Ti      21.20855124      21.76043229      18.76201988       0.00000000       0.00000000       0.00000000
Ti       6.53772947      16.79752069       2.74401637       0.00000000       0.00000000       0.00000000
Ti       8.65362874      22.78438246       0.86310493       0.00000000       0.00000000       0.00000000
Ti       9.51305942       3.61739764      22.47882709       0.00000000       0.00000000       0.00000000
Ti      15.55083776      15.56882511       1.69834088       0.00000000       0.00000000       0.00000000
Ti       5.72029703       3.05437736       4.97785556       0.00000000       0.00000000       0.00000000
Ti      22.85074381      11.62679219       1.16478049       0.00000000       0.00000000       0.00000000
Ti       5.80366099      15.82622644       5.57936968       0.00000000       0.00000000       0.00000000
Ti       2.07706788      11.86623290       5.28235502       0.00000000       0.00000000       0.00000000
Ti      21.91462736       6.45415475      18.90605513       0.00000000       0.00000000       0.00000000
Ti      10.25995704       4.31590499      19.92572002       0.00000000       0.00000000       0.00000000
Ti      20.99618605      13.38834859      21.89024882       0.00000000       0.00000000       0.00000000
Ti      17.09891958      13.83785372       3.44337613       0.00000000       0.00000000       0.00000000
Ti       9.41854407      11.22827334      19.93745130       0.00000000       0.00000000       0.00000000
Ti      21.78353233      14.29458099      19.04018890       0.00000000       0.00000000       0.00000000
Ti       8.98850142      13.19766553      22.15962178       0.00000000       0.00000000       0.00000000
Ti       8.69305484       2.49440078       3.12447864       0.00000000       0.00000000       0.00000000
Ti       2.93052043      10.34576942       0.01987729       0.00000000       0.00000000       0.00000000
Ti      22.22323823       1.07423635       4.73622969       0.00000000       0.00000000       0.00000000
Ti       4.65729932       8.32285941       1.50016228       0.00000000       0.00000000       0.00000000
Ti      20.93279269       7.66716123       4.79034765       0.00000000       0.00000000       0.00000000
Ti      15.32634770      11.76812305      19.86601454       0.00000000       0.00000000       0.00000000
Ti       9.16219645       7.63752052       4.76944598       0.00000000       0.00000000       0.00000000
Ti      16.25813168      18.64113315       0.58238258       0.00000000       0.00000000       0.00000000
Ti       3.90528593       5.56852043       2.42183339       0.00000000       0.00000000       0.00000000
Ti      15.29027036      13.57270440      22.25949465       0.00000000       0.00000000       0.00000000
Ti       6.55516011      22.24123131      19.77185847       0.00000000       0.00000000       0.00000000
Ti       6.77047036      20.00230657      17.75198556       0.00000000       0.00000000       0.00000000
Ti       4.01220670       0.56000478      20.26381495       0.00000000       0.00000000       0.00000000
Ti      10.04040295       6.35136729      22.25225506       0.00000000       0.00000000       0.00000000
Zr       0.08744858       3.79684027       4.60229747       0.00000000       0.00000000       0.00000000
Zr       0.89105053      12.91190747      20.74276196       0.00000000       0.00000000       0.00000000
Zr      13.17667537      11.62799071       5.50474530       0.00000000       0.00000000       0.00000000
Zr      13.18616374       5.27016847      21.40079538       0.00000000       0.00000000       0.00000000
Zr       5.67968807       1.50161048       2.20130063       0.00000000       0.00000000       0.00000000
Zr      13.92324361      18.41874786      19.45394170       0.00000000       0.00000000       0.00000000
Zr       0.98743844       4.47542346       1.53382038       0.00000000       0.00000000       0.00000000
Zr      19.96479909      15.20262620       4.66338607       0.00000000       0.00000000       0.00000000
Zr       1.08948835       8.96517482       5.94692220       0.00000000       0.00000000       0.00000000
Zr      12.26347755      14.32460029       0.69084518       0.00000000       0.00000000       0.00000000
Zr      14.06600347       2.35909942       3.46669689       0.00000000       0.00000000       0.00000000
Zr      21.80297064      18.95995371       0.42942153       0.00000000       0.00000000       0.00000000
Zr       2.80481905       8.06744985      20.55146525       0.00000000       0.00000000       0.00000000
Zr       6.59805174      14.39232170       0.66639885       0.00000000       0.00000000       0.00000000
Zr      13.31971080      15.24797278      20.42706568       0.00000000       0.00000000       0.00000000
Zr      15.07171918      20.42266759       6.18164222       0.00000000       0.00000000       0.00000000
Zr      18.94307168      11.99545943       5.35606112       0.00000000       0.00000000       0.00000000
Zr       7.64134890       2.87380570      18.98627193       0.00000000       0.00000000       0.00000000
Zr      16.89758649      17.29786595      17.96225983       0.00000000       0.00000000       0.00000000
Zr      15.84141552      20.97750959       3.26598462       0.00000000       0.00000000       0.00000000
Zr       4.62562644      10.84982718       4.31350762       0.00000000       0.00000000       0.00000000
Zr      12.43146350      19.14836149       5.32176590       0.00000000       0.00000000       0.00000000
Zr       8.48022336      18.15085752      19.47070205       0.00000000       0.00000000       0.00000000
Zr      18.95877513      22.21622227       4.42579646       0.00000000       0.00000000       0.00000000
Zr      21.93218874      10.57739355       4.24126211       0.00000000       0.00000000       0.00000000
Zr       2.64554009       0.19552417       1.03102187       0.00000000       0.00000000       0.00000000
Zr      20.50082822      15.93321626       1.45143180       0.00000000       0.00000000       0.00000000
Zr       5.44260754      21.81448137      22.65071182       0.00000000       0.00000000       0.00000000
Zr       4.54150882       0.63049714       5.26166385       0.00000000       0.00000000       0.00000000
Zr      14.11543901       5.82311816      18.40562035       0.00000000       0.00000000       0.00000000
Zr      21.74165880      12.87472491       6.38055768       0.00000000       0.00000000       0.00000000
Zr       2.18077003      13.09444415      17.80008066       0.00000000       0.00000000       0.00000000
Zr      22.57718760      17.12416657      17.94230041       0.00000000       0.00000000       0.00000000
Zr      21.85450102       3.60090512      20.40339464       0.00000000       0.00000000       0.00000000
Zr      10.42935330       1.62985329      17.86198668       0.00000000       0.00000000       0.00000000
Zr      21.15065295      10.92317689      19.44149219       0.00000000       0.00000000       0.00000000
Zr       1.97195923       7.47633882       0.33065744       0.00000000       0.00000000       0.00000000
Zr      19.59878579       7.95878419      20.47996622       0.00000000       0.00000000       0.00000000
Zr       8.62116973      20.64702970      21.59397910       0.00000000       0.00000000       0.00000000
Zr       6.72521109       2.27440798      21.88066705       0.00000000       0.00000000       0.00000000
Zr      16.85049020      19.19884419      20.56034210       0.00000000       0.00000000       0.00000000
Zr      19.05789739       2.42405879      19.07973687       0.00000000       0.00000000       0.00000000
Zr       9.99565217      14.01473939      19.25843602       0.00000000       0.00000000       0.00000000
Zr       1.65137890       9.82237918       2.75793425       0.00000000       0.00000000       0.00000000
C       11.06261396      21.08569948      15.18934768       0.00000000       0.00000000       0.00000000
C       11.39237701      20.37065346      10.48064954       0.00000000       0.00000000       0.00000000
C        1.00938034       0.57890084      13.13155251       0.00000000       0.00000000       0.00000000
C        4.30766526      10.45203439      13.38419432       0.00000000       0.00000000       0.00000000
C        8.73263307      15.52229569      11.12630939       0.00000000       0.00000000       0.00000000
C       11.25605430       9.17962445       7.47049861       0.00000000       0.00000000       0.00000000
C        8.01289058      21.32454181      16.44813092       0.00000000       0.00000000       0.00000000
C        2.35323438       0.86134292       9.43588181       0.00000000       0.00000000       0.00000000
C        1.36723686       3.78664773      15.67178590       0.00000000       0.00000000       0.00000000
C        6.85320822      21.56527404       7.71748659       0.00000000       0.00000000       0.00000000
C        8.71539310      12.11428107      12.20187269       0.00000000       0.00000000       0.00000000
C        2.97245911      16.45928737       6.72618791       0.00000000       0.00000000       0.00000000
C        9.06569764      11.22992307      16.42667881       0.00000000       0.00000000       0.00000000
C        5.98477090      18.37427940       9.21278902       0.00000000       0.00000000       0.00000000
C        2.06086055       7.85297921      12.99410806       0.00000000       0.00000000       0.00000000
C        1.28134956      11.33406755      12.95900326       0.00000000       0.00000000       0.00000000
C        7.79404413       4.06960681      10.60853962       0.00000000       0.00000000       0.00000000
C        4.33148139       7.91709377       7.04563777       0.00000000       0.00000000       0.00000000
C        1.91171275       9.09672790      15.83260607       0.00000000       0.00000000       0.00000000
C        3.47314045       2.01202257      13.38456433       0.00000000       0.00000000       0.00000000
C        9.28983608       0.68358915       7.52219929       0.00000000       0.00000000       0.00000000
C        9.66843216      12.56272758       7.05789526       0.00000000       0.00000000       0.00000000
C       10.34521970      18.17258059      16.14335153       0.00000000       0.00000000       0.00000000
C        5.84314577       5.28942248       8.23249418       0.00000000       0.00000000       0.00000000
C        3.65263553      21.39600156       8.72662176       0.00000000       0.00000000       0.00000000
C        5.96878274       8.26047346       8.66604341       0.00000000       0.00000000       0.00000000
C       10.62694723       9.70846494      12.97657576       0.00000000       0.00000000       0.00000000
C        4.84901129       8.85910270       9.29848533       0.00000000       0.00000000       0.00000000
C        5.16506232       9.18630166      12.98539199       0.00000000       0.00000000       0.00000000
Ti       6.21146464      15.04552651       9.50594826       0.00000000       0.00000000       0.00000000
Ti       8.78643137       1.15832271      11.50509631       0.00000000       0.00000000       0.00000000
C        3.47195696      22.63112703       9.35095530       0.00000000       0.00000000       0.00000000
C        9.29708938       6.12481127       8.01615802       0.00000000       0.00000000       0.00000000
C        5.96443566      15.07294798      16.46521252       0.00000000       0.00000000       0.00000000
C        3.95842609       1.68255968      12.13784661       0.00000000       0.00000000       0.00000000
C       10.26416004       9.59759331       6.76863759       0.00000000       0.00000000       0.00000000
C        2.44531281      17.68865183      15.34871456       0.00000000       0.00000000       0.00000000
C        4.95704882      12.91694731      11.97025857       0.00000000       0.00000000       0.00000000
C        1.08884159      13.35782211       7.80508533       0.00000000       0.00000000       0.00000000
C        8.02430664       5.71844198      16.39584827       0.00000000       0.00000000       0.00000000
C       11.73535429       4.29573768      12.39713021       0.00000000       0.00000000       0.00000000
C       11.28496190      13.69728273      14.14163161       0.00000000       0.00000000       0.00000000
C        8.15748717       3.02467519      15.09666039       0.00000000       0.00000000       0.00000000
C        8.43623225      21.20861169       9.96876557       0.00000000       0.00000000       0.00000000
C        7.35175460      12.11102952      13.88933529       0.00000000       0.00000000       0.00000000
C        1.93232443      19.03272192       9.63196218       0.00000000       0.00000000       0.00000000
C       10.07641447      19.78731324       7.74730773       0.00000000       0.00000000       0.00000000
C        1.46198029       5.05606060      10.53592210       0.00000000       0.00000000       0.00000000
C        5.42110575      14.27285990      12.51389611       0.00000000       0.00000000       0.00000000
C        8.05791302      10.07216192      15.53364341       0.00000000       0.00000000       0.00000000
C       11.50323928      17.41830330      12.20962082       0.00000000       0.00000000       0.00000000
C        0.64747591      18.05505234      10.01423802       0.00000000       0.00000000       0.00000000
C        0.24152272       2.87524671      11.72337277       0.00000000       0.00000000       0.00000000
C        8.95458770      18.05219639      16.34207645       0.00000000       0.00000000       0.00000000
C        9.64197234      15.16898607      17.19457455       0.00000000       0.00000000       0.00000000
C        5.85385514      16.93264768      16.05030091       0.00000000       0.00000000       0.00000000
C        9.61279078       6.94102037      13.94018096       0.00000000       0.00000000       0.00000000
C        8.59786423      12.63767312      13.59793773       0.00000000       0.00000000       0.00000000
C       10.52469729      18.62103726      12.16746099       0.00000000       0.00000000       0.00000000
C       11.10470557       5.78754570      10.78838691       0.00000000       0.00000000       0.00000000
C       10.79018631      16.25401841      12.63739489       0.00000000       0.00000000       0.00000000
C        1.77341162       5.23330818       8.93886407       0.00000000       0.00000000       0.00000000
C        0.86136730       4.48165216      14.77954318       0.00000000       0.00000000       0.00000000
C        2.30933493      21.46146570      15.01701421       0.00000000       0.00000000       0.00000000
C        8.17711353      15.34649886      14.53664426       0.00000000       0.00000000       0.00000000
C        4.87017701      11.82130290       8.16113277       0.00000000       0.00000000       0.00000000
C        5.22726111      20.27011171      11.83717756       0.00000000       0.00000000       0.00000000
C        3.23877750      21.95244745      14.20991646       0.00000000       0.00000000       0.00000000
C        2.11356271       1.36617102      13.95479739       0.00000000       0.00000000       0.00000000
C        0.96298194      14.01895155      17.29809622       0.00000000       0.00000000       0.00000000
C        2.68483031      17.46072857      12.51677307       0.00000000       0.00000000       0.00000000
C       11.60756886       3.44226591       8.27150333       0.00000000       0.00000000       0.00000000
C        0.81256901       7.69869595      12.85424513       0.00000000       0.00000000       0.00000000
C        6.43568595       4.23125638       7.83068649       0.00000000       0.00000000       0.00000000
C        0.01681518      20.04995545      13.66141506       0.00000000       0.00000000       0.00000000
C        4.80547966       3.44159180      15.77405146       0.00000000       0.00000000       0.00000000
C        0.88530235      22.42336863      12.07489906       0.00000000       0.00000000       0.00000000
C        0.78383319       1.32203307      16.33474448       0.00000000       0.00000000       0.00000000
C        5.54216653       1.04611959       9.34780813       0.00000000       0.00000000       0.00000000
C        7.77382441      17.82685940      12.39933794       0.00000000       0.00000000       0.00000000
C       11.80865840       9.45533253      12.91402302       0.00000000       0.00000000       0.00000000
C        4.90590799      20.23590058      13.24699079       0.00000000       0.00000000       0.00000000
C        7.52255217       9.12394778       6.70045593       0.00000000       0.00000000       0.00000000
C        2.44989225       9.76380311      13.09271753       0.00000000       0.00000000       0.00000000
C        8.28249673       4.57622535      11.78231808       0.00000000       0.00000000       0.00000000
C        0.39885838      14.02044169      13.35374550       0.00000000       0.00000000       0.00000000
C       11.95423484      21.85281380      15.92671600       0.00000000       0.00000000       0.00000000
C        0.34316986      13.86783419      16.08849792       0.00000000       0.00000000       0.00000000
C       11.40170551       4.56690473       7.12061042       0.00000000       0.00000000       0.00000000
C        7.18879487       3.70135838       9.31325558       0.00000000       0.00000000       0.00000000
C        4.15034880      15.49484735      14.02043849       0.00000000       0.00000000       0.00000000
C       11.27680056       0.23600992      16.37011447       0.00000000       0.00000000       0.00000000
C        7.55662792      21.31385083      15.19379355       0.00000000       0.00000000       0.00000000
C        8.31286944       2.88020634      16.40618000       0.00000000       0.00000000       0.00000000
Hf       0.69196227      20.32804491      11.20339412       0.00000000       0.00000000       0.00000000
Hf       2.85329890       7.16658263       9.01638119       0.00000000       0.00000000       0.00000000
Hf       3.63676853      15.72486038      11.56254739       0.00000000       0.00000000       0.00000000
Hf      11.59846920      11.93475327      16.32237646       0.00000000       0.00000000       0.00000000
Hf       3.47167310      10.44687006      16.06480694       0.00000000       0.00000000       0.00000000
Hf       0.99558280      17.11568390       8.35681329       0.00000000       0.00000000       0.00000000
Hf       1.48209370      11.28996884       9.10854951       0.00000000       0.00000000       0.00000000
Hf       9.72333329       1.01459250       9.77774826       0.00000000       0.00000000       0.00000000
Hf       1.16032159      10.57704072      17.26592328       0.00000000       0.00000000       0.00000000
Hf       3.24145334      21.67004444      12.01785421       0.00000000       0.00000000       0.00000000
Hf       6.07323157      20.83450077       9.68408639       0.00000000       0.00000000       0.00000000
Hf       9.87602217       3.78487433      10.95174946       0.00000000       0.00000000       0.00000000
Hf       6.09170546       2.52372946      11.27086827       0.00000000       0.00000000       0.00000000
Hf       0.53563702       9.55770666      14.14771351       0.00000000       0.00000000       0.00000000
Hf       8.75412567       0.32666302      16.02904450       0.00000000       0.00000000       0.00000000
Hf       9.29961079      17.70817613       7.41623069       0.00000000       0.00000000       0.00000000
Hf       1.12518082      16.34100833      16.88004639       0.00000000       0.00000000       0.00000000
Hf       4.79041182      17.76948393      13.22602873       0.00000000       0.00000000       0.00000000
Hf       1.86053700      19.25506062      13.83949300       0.00000000       0.00000000       0.00000000
Hf       6.10442543      11.08448613      15.56282311       0.00000000       0.00000000       0.00000000
Nb      10.70278750       5.64042425      15.49589362       0.00000000       0.00000000       0.00000000
Nb       5.04763865       7.64837607      16.34626089       0.00000000       0.00000000       0.00000000
Nb       8.68650617       1.94668345      13.28895476       0.00000000       0.00000000       0.00000000
Nb       3.75193676      16.34789510      15.76448333       0.00000000       0.00000000       0.00000000
Nb      12.05648828       6.62051004       8.21110722       0.00000000       0.00000000       0.00000000
Nb       4.98429240       7.06887203      13.61776510       0.00000000       0.00000000       0.00000000
Nb       3.99847677      13.61656601      17.04311770       0.00000000       0.00000000       0.00000000
Nb       1.02848034      16.56338674      11.68219936       0.00000000       0.00000000       0.00000000
Nb      11.77956214      11.54129504       7.31349733       0.00000000       0.00000000       0.00000000
Nb       3.75542051      18.37343207      10.79883285       0.00000000       0.00000000       0.00000000
Nb       4.63011388      13.70761922       9.88981071       0.00000000       0.00000000       0.00000000
Nb       6.26908228       7.12151713       6.95473666       0.00000000       0.00000000       0.00000000
Nb       3.59003898       1.73595178      15.31187835       0.00000000       0.00000000       0.00000000
Nb       7.58853541       6.29888315      13.94515240       0.00000000       0.00000000       0.00000000
Nb       6.17637861       1.75610947      17.33021095       0.00000000       0.00000000       0.00000000
Nb       2.32893729      18.57279316      17.51573261       0.00000000       0.00000000       0.00000000
Nb       2.73898023      12.23476581       6.76630987       0.00000000       0.00000000       0.00000000
Nb       6.76722256      11.37264916       9.16263949       0.00000000       0.00000000       0.00000000
Nb       6.09339629       0.11943919       7.61946142       0.00000000       0.00000000       0.00000000
Nb       1.26216590       0.19451894      11.05595567       0.00000000       0.00000000       0.00000000
Nb       8.11667344      17.54498860      14.16076654       0.00000000       0.00000000       0.00000000
Ta       3.14466972       3.57273165       6.54661908       0.00000000       0.00000000       0.00000000
Ta       8.96898649      19.09403670      10.91824520       0.00000000       0.00000000       0.00000000
Ta       3.64207544       4.10137423      14.12951773       0.00000000       0.00000000       0.00000000
Ta       6.00987345      22.28127504      12.90536832       0.00000000       0.00000000       0.00000000
Ta       1.31873925       4.70889732      12.71003005       0.00000000       0.00000000       0.00000000
Ta       7.38363588      19.46203469      16.49774380       0.00000000       0.00000000       0.00000000
Ta      10.39931133      21.18669673       9.09384127       0.00000000       0.00000000       0.00000000
Ta       9.60832224      14.25290756      13.23366297       0.00000000       0.00000000       0.00000000
Ta       3.96657058       1.97151937       8.56758943       0.00000000       0.00000000       0.00000000
Ta       1.27239498       1.12850961       6.40644465       0.00000000       0.00000000       0.00000000
Ta       9.45407373       4.32743206      13.87306908       0.00000000       0.00000000       0.00000000
Ta       9.72821143      14.54120874       7.87935360       0.00000000       0.00000000       0.00000000
Ta       9.13923182       4.60146231       6.82021175       0.00000000       0.00000000       0.00000000
Ta       3.03933089      11.99601538      11.61831823       0.00000000       0.00000000       0.00000000
Ta       7.52142485       1.93811175       8.47621051       0.00000000       0.00000000       0.00000000
Ta       7.88706078      16.21461707      16.71639167       0.00000000       0.00000000       0.00000000
Ta       1.48690057       6.73556029      14.99395827       0.00000000       0.00000000       0.00000000
Ti       8.16504691      11.09074957       6.92553415       0.00000000       0.00000000       0.00000000
Ti       7.67901726      20.27100957      13.58197808       0.00000000       0.00000000       0.00000000
Ti       4.48619125      13.31847261      14.42683213       0.00000000       0.00000000       0.00000000
Ti      10.40933236      15.92072940      14.94804929       0.00000000       0.00000000       0.00000000
Ti       9.51409485       6.66444919      11.49501805       0.00000000       0.00000000       0.00000000
Ti       1.07123645       2.43656076       8.91198923       0.00000000       0.00000000       0.00000000
Ti       7.07549816       8.19687129      11.51458369       0.00000000       0.00000000       0.00000000
Ti       9.90422254      22.15332180      16.97668580       0.00000000       0.00000000       0.00000000
Ti       3.54265782       9.31122034      11.08381445       0.00000000       0.00000000       0.00000000
Ti       4.85547050      22.34003181       7.04991331       0.00000000       0.00000000       0.00000000
Ti       6.12140367      10.85291986      12.42992728       0.00000000       0.00000000       0.00000000
Ti      10.39140123      16.48543253      10.31130315       0.00000000       0.00000000       0.00000000
Ti       0.37175243      21.49523945      15.06803612       0.00000000       0.00000000       0.00000000
Ti       8.70292825      10.61530293      13.45948009       0.00000000       0.00000000       0.00000000
Ti       4.47213647      10.19034601       7.36833336       0.00000000       0.00000000       0.00000000
Ti       6.21218607      15.10337445      14.40101796       0.00000000       0.00000000       0.00000000
Ti      11.89696325       8.66301507      10.38275680       0.00000000       0.00000000       0.00000000
Ti       4.39196264       0.38338544      11.01920409       0.00000000       0.00000000       0.00000000
Ti       1.94882047      15.71651586      13.88523072       0.00000000       0.00000000       0.00000000
Ti       0.68808657      19.80595348      16.54867660       0.00000000       0.00000000       0.00000000
Ti       4.49526903       5.25697521      17.16393817       0.00000000       0.00000000       0.00000000
Ti       0.39033848       2.51789390      13.77184057       0.00000000       0.00000000       0.00000000
Zr       2.39298297       2.64910074      11.25512204       0.00000000       0.00000000       0.00000000
Zr      11.45251422      11.45251422      11.96281572       0.00000000       0.00000000       0.00000000
Zr       4.13240386      16.61686819       8.66660636       0.00000000       0.00000000       0.00000000
Zr       8.45037308      13.43761480      16.01085285       0.00000000       0.00000000       0.00000000
Zr      11.01458069      20.98206679      12.41507911       0.00000000       0.00000000       0.00000000
Zr      12.05591747      18.89480509       8.13061713       0.00000000       0.00000000       0.00000000
Zr       6.63624810       0.48446857      13.78226577       0.00000000       0.00000000       0.00000000
Zr      11.44846146       2.41256652       6.49487352       0.00000000       0.00000000       0.00000000
Zr       7.31924189      13.39551036      11.61679228       0.00000000       0.00000000       0.00000000
Zr       0.15712915       7.89753030      10.34903871       0.00000000       0.00000000       0.00000000
Zr       3.99724676      20.13349403      15.82176329       0.00000000       0.00000000       0.00000000
Zr       0.41957244       8.23000642       6.77627067       0.00000000       0.00000000       0.00000000
Zr       1.13692659      13.80995819      11.28602024       0.00000000       0.00000000       0.00000000
Zr       1.61027397      20.46154910       8.31757001       0.00000000       0.00000000       0.00000000
Zr       8.14155930       6.16057739       9.69302454       0.00000000       0.00000000       0.00000000
Zr       1.57941905      12.97891434      14.89958912       0.00000000       0.00000000       0.00000000
Zr       3.63354786       4.71114242       9.26785749       0.00000000       0.00000000       0.00000000
Zr      11.56865859      19.19771589      14.56253595       0.00000000       0.00000000       0.00000000
Zr      11.74060322       1.82258663      13.73047185       0.00000000       0.00000000       0.00000000
Zr      11.83117668       6.45805055      13.15239581       0.00000000       0.00000000       0.00000000
Zr       7.76647307       8.10883365      16.27989619       0.00000000       0.00000000       0.00000000
Zr       6.80695385      17.01117098      10.45474593       0.00000000       0.00000000       0.00000000
Zr       7.02509363      13.60383437       7.55346355       0.00000000       0.00000000       0.00000000
C       22.04786069       0.22501511       6.70509045       0.00000000       0.00000000       0.00000000
C       16.02513960       3.24788118       7.28627987       0.00000000       0.00000000       0.00000000
C       20.85731383       2.20499525       8.17062399       0.00000000       0.00000000       0.00000000
C       14.67775302      16.60714823      16.02394241       0.00000000       0.00000000       0.00000000
C       22.23173261      20.12294828      12.75529316       0.00000000       0.00000000       0.00000000
C       15.58123430      19.11327713      15.61540310       0.00000000       0.00000000       0.00000000
C       13.62231330      19.75302243      15.26444976       0.00000000       0.00000000       0.00000000
C       12.22482870       2.27859424       8.97694937       0.00000000       0.00000000       0.00000000
C       21.42205700      20.09341822       7.17366146       0.00000000       0.00000000       0.00000000
C       12.51040678      13.78324381       7.70438071       0.00000000       0.00000000       0.00000000
C       12.56879330      17.19235150       9.80204937       0.00000000       0.00000000       0.00000000
C       18.68908662       1.33677270      10.00506649       0.00000000       0.00000000       0.00000000
C       17.70612630       0.47251507      10.25540010       0.00000000       0.00000000       0.00000000
C       13.45751386      11.28617134      10.47604233       0.00000000       0.00000000       0.00000000
C       20.51198232       0.94881902      16.73527966       0.00000000       0.00000000       0.00000000
C       12.74844439      21.24838841       8.58071279       0.00000000       0.00000000       0.00000000
C       12.93174702      15.60423206      10.31539832       0.00000000       0.00000000       0.00000000
C       21.80009234      14.58972375      13.90484208       0.00000000       0.00000000       0.00000000
C       18.23139764      13.94682688      12.11546586       0.00000000       0.00000000       0.00000000
C       15.42393082      21.86050083      11.66077830       0.00000000       0.00000000       0.00000000
C       15.14234891       0.38824144       9.85658381       0.00000000       0.00000000       0.00000000
C       17.29126676       0.13049818      15.04108170       0.00000000       0.00000000       0.00000000
C       13.91720509       8.48482476      11.11896947       0.00000000       0.00000000       0.00000000
C       22.67374207      12.73912667      11.86180440       0.00000000       0.00000000       0.00000000
C       18.25136593      17.19748430       9.19409979       0.00000000       0.00000000       0.00000000
C       19.53960616       5.03719070      10.15812729       0.00000000       0.00000000       0.00000000
C       15.29976999      17.63535104      15.29184294       0.00000000       0.00000000       0.00000000
C       13.68558270      12.89406049      10.79710248       0.00000000       0.00000000       0.00000000
C       18.30575061       9.00602108      16.36729504       0.00000000       0.00000000       0.00000000
C       15.50284769       1.88102481      12.94123839       0.00000000       0.00000000       0.00000000
C       19.32342492      16.67249743      16.59469286       0.00000000       0.00000000       0.00000000
C       16.25189797      17.49095563      10.96979176       0.00000000       0.00000000       0.00000000
C       22.27366320      19.11008762      17.14910938       0.00000000       0.00000000       0.00000000
C       22.63444255      17.22858716       8.21651193       0.00000000       0.00000000       0.00000000
C       19.79083063       8.93437750       9.79512105       0.00000000       0.00000000       0.00000000
C       18.56521091      13.76629288      10.55959190       0.00000000       0.00000000       0.00000000
C       14.61721222       3.72816632      10.00298009       0.00000000       0.00000000       0.00000000
C       17.79204689       7.67139971       8.64442068       0.00000000       0.00000000       0.00000000
C       22.80448892       5.04321950      10.49784968       0.00000000       0.00000000       0.00000000
C       21.20334865      12.45662390      15.52291586       0.00000000       0.00000000       0.00000000
C       14.06507636      20.11692918      10.52719094       0.00000000       0.00000000       0.00000000
C       18.16992013      10.22398921      16.33435807       0.00000000       0.00000000       0.00000000
C       19.92886970      14.63809024       6.40369001       0.00000000       0.00000000       0.00000000
C       16.75820520      11.80474790       8.16453454       0.00000000       0.00000000       0.00000000
C       20.95520484       3.90775325      13.86714011       0.00000000       0.00000000       0.00000000
C       19.30073354       6.17383644      15.17750428       0.00000000       0.00000000       0.00000000
C       18.70111137      15.95467931      15.51341437       0.00000000       0.00000000       0.00000000
C       22.36264838       7.31127623       8.51697543       0.00000000       0.00000000       0.00000000
C       15.39828112      14.42920040       6.76626529       0.00000000       0.00000000       0.00000000
C       15.15492234       9.15994305      11.50296074       0.00000000       0.00000000       0.00000000
C       16.46409685      17.19970086      12.17186460       0.00000000       0.00000000       0.00000000
C       19.09374656      16.85142941       8.05894462       0.00000000       0.00000000       0.00000000
C       20.12191644      11.81930118      13.05918256       0.00000000       0.00000000       0.00000000
C       15.29414357      13.30618895      10.69808054       0.00000000       0.00000000       0.00000000
C       18.31400815      22.68882378       7.99544565       0.00000000       0.00000000       0.00000000
C       13.71778848      20.17546898       9.13442075       0.00000000       0.00000000       0.00000000
C       21.57054748      12.17552808      17.25684398       0.00000000       0.00000000       0.00000000
C       13.00128523       6.78225878      17.00802714       0.00000000       0.00000000       0.00000000
C       22.72323940       2.52824019      11.86226113       0.00000000       0.00000000       0.00000000
C       16.69568876       5.17767687      14.47283387       0.00000000       0.00000000       0.00000000
C       14.38039483      12.30876006      17.28198834       0.00000000       0.00000000       0.00000000
C       14.90771652      11.31555333      16.77976512       0.00000000       0.00000000       0.00000000
C       17.21927025      11.72238871      14.65815295       0.00000000       0.00000000       0.00000000
C       21.57378612       0.91999094      11.48246211       0.00000000       0.00000000       0.00000000
C       17.62604685       6.82867420       7.48038048       0.00000000       0.00000000       0.00000000
C       21.68484978       6.05157513       7.84540420       0.00000000       0.00000000       0.00000000
C       14.56133286       0.46684810      12.83882910       0.00000000       0.00000000       0.00000000
C       16.21291689      14.09627019      16.02371797       0.00000000       0.00000000       0.00000000
C       18.37015194      19.77946063      17.05879105       0.00000000       0.00000000       0.00000000
C       18.94459277      20.49824733      12.04295678       0.00000000       0.00000000       0.00000000
C       22.52354947      17.73530142      13.23682980       0.00000000       0.00000000       0.00000000
C       16.59300783      17.79356405       7.46496435       0.00000000       0.00000000       0.00000000
C       20.07592381       1.28228467      15.49208895       0.00000000       0.00000000       0.00000000
C       19.35738480      20.50409366      13.43605352       0.00000000       0.00000000       0.00000000
C       20.90912639      22.36566681      15.66793789       0.00000000       0.00000000       0.00000000
C       20.39082809      11.34390621       7.29909722       0.00000000       0.00000000       0.00000000
C       20.90546023      10.03341907       9.62144757       0.00000000       0.00000000       0.00000000
C       21.68578775       6.71665917      12.80912527       0.00000000       0.00000000       0.00000000
C       15.97880696       2.75649986      17.00962427       0.00000000       0.00000000       0.00000000
C       13.19982878       0.08795840      13.25495959       0.00000000       0.00000000       0.00000000
C       22.60601172      14.23719468      11.38162025       0.00000000       0.00000000       0.00000000
C       16.12501417      18.95940218       7.75266596       0.00000000       0.00000000       0.00000000
Hf      18.41034517      16.04625594      11.07534490       0.00000000       0.00000000       0.00000000
Hf      17.44620185      12.00950088      17.15637875       0.00000000       0.00000000       0.00000000
Hf      12.48601555      16.58530199      16.54081324       0.00000000       0.00000000       0.00000000
Hf      18.70188884       4.14951343      14.02763715       0.00000000       0.00000000       0.00000000
Hf      21.55639867       9.58661121       7.49071110       0.00000000       0.00000000       0.00000000
Hf      14.12304441      13.42266164       8.70969907       0.00000000       0.00000000       0.00000000
Hf      20.01712369       0.01545344       8.31736814       0.00000000       0.00000000       0.00000000
Hf      21.49749327       1.79528776      13.82972588       0.00000000       0.00000000       0.00000000
Hf      17.44315252       8.28769536      10.67540088       0.00000000       0.00000000       0.00000000
Hf      15.26970401       0.95914527      15.18029599       0.00000000       0.00000000       0.00000000
Hf      21.32842687       8.76637224      13.27100548       0.00000000       0.00000000       0.00000000
Hf      19.82068910      20.98844510       9.06700721       0.00000000       0.00000000       0.00000000
Hf      22.53896133       1.18049334       9.73501095       0.00000000       0.00000000       0.00000000
Hf      13.91115275      13.94637934      15.44872305       0.00000000       0.00000000       0.00000000
Hf      21.31909434       4.20804047       9.08442274       0.00000000       0.00000000       0.00000000
Hf      18.22615054       2.36038591      17.19608993       0.00000000       0.00000000       0.00000000
Hf      17.49621733       7.38108578      14.85093471       0.00000000       0.00000000       0.00000000
Hf      13.61242104      21.21072485      13.73963751       0.00000000       0.00000000       0.00000000
Nb      21.53972885      20.45382703      14.74259427       0.00000000       0.00000000       0.00000000
Nb      16.55518797      11.54482869      10.44040524       0.00000000       0.00000000       0.00000000
Nb      14.21566385       9.83210906       9.30895633       0.00000000       0.00000000       0.00000000
Nb      15.75452263      21.23721564      16.03040333       0.00000000       0.00000000       0.00000000
Nb      21.79372041      18.90323760       8.91672200       0.00000000       0.00000000       0.00000000
Nb      12.86710696      18.84398399      11.42069714       0.00000000       0.00000000       0.00000000
Nb      19.68736942       6.67740069       8.60761579       0.00000000       0.00000000       0.00000000
Nb      18.46236835      18.64622108      10.62331335       0.00000000       0.00000000       0.00000000
Nb      15.87827328       2.05836868      11.22848847       0.00000000       0.00000000       0.00000000
Nb      15.28160582      15.85036703      10.67429263       0.00000000       0.00000000       0.00000000
Nb      17.32930246      21.70718213      12.48817879       0.00000000       0.00000000       0.00000000
Nb      17.76052086       0.57044603       6.47846332       0.00000000       0.00000000       0.00000000
Ta      16.65194299      15.29225221       7.96312996       0.00000000       0.00000000       0.00000000
Ta      19.74888238      13.40820762      14.52094358       0.00000000       0.00000000       0.00000000
Ta      12.85274398      14.74978271      13.10639279       0.00000000       0.00000000       0.00000000
Ta      20.74778990      22.00547453      12.76184926       0.00000000       0.00000000       0.00000000
Ta      17.38382775       1.04977407      13.26795012       0.00000000       0.00000000       0.00000000
Ta      14.31765595      18.73769702      17.11945354       0.00000000       0.00000000       0.00000000
Ta      21.93565056      11.75495704      13.77407764       0.00000000       0.00000000       0.00000000
Ta      18.29014968      18.93263870       7.63156032       0.00000000       0.00000000       0.00000000
Ta      17.13686567      16.09201591      16.70636099       0.00000000       0.00000000       0.00000000
Ta      20.69415310      13.85571856      11.59752887       0.00000000       0.00000000       0.00000000
Ta      14.88752783      16.45155034      13.63624107       0.00000000       0.00000000       0.00000000
Ta      16.79327401      13.56859089      13.92000784       0.00000000       0.00000000       0.00000000
Ta      16.14949893      10.26427351      15.45139209       0.00000000       0.00000000       0.00000000
Ta      15.73476398       3.25811540      15.03264132       0.00000000       0.00000000       0.00000000
Ta      12.90800614       0.40955648       9.14481595       0.00000000       0.00000000       0.00000000
Ti      21.59021251      15.03643812      16.13521516       0.00000000       0.00000000       0.00000000
Ti      19.29212881       2.85582225      11.23630151       0.00000000       0.00000000       0.00000000
Ti      21.38669978       5.90321566      14.47700280       0.00000000       0.00000000       0.00000000
Ti      21.24458207      22.37670658       6.93169157       0.00000000       0.00000000       0.00000000
Ti      15.90285894      20.70387133       8.93432748       0.00000000       0.00000000       0.00000000
Ti      18.74131508       9.56888488       8.26369269       0.00000000       0.00000000       0.00000000
Ti      13.54013769      22.05328945      10.95344217       0.00000000       0.00000000       0.00000000
Ti      21.12253888      16.37919159       7.41674205       0.00000000       0.00000000       0.00000000
Ti      12.19790407      15.85452328       8.30620369       0.00000000       0.00000000       0.00000000
Ti      13.80477261       7.19183366       9.67678665       0.00000000       0.00000000       0.00000000
Ti      12.21674013       9.84178867      15.25418983       0.00000000       0.00000000       0.00000000
Ti      18.79483288      21.88379054      16.58877475       0.00000000       0.00000000       0.00000000
Ti      14.86600663       6.53983092      16.09106093       0.00000000       0.00000000       0.00000000
Zr      18.13008399       3.19804322       7.90682179       0.00000000       0.00000000       0.00000000
Zr      21.22307998       4.62970689      11.92271669       0.00000000       0.00000000       0.00000000
Zr      13.18604152       4.32071005      17.29385969       0.00000000       0.00000000       0.00000000
Zr      22.31018988       7.04534289      10.82507433       0.00000000       0.00000000       0.00000000
Zr      18.97595833      12.30633119       8.83097012       0.00000000       0.00000000       0.00000000
Zr      22.24781336      22.70769661       9.82187495       0.00000000       0.00000000       0.00000000
Zr      17.57052940      18.52058902      15.55289418       0.00000000       0.00000000       0.00000000
Zr      21.89515076      12.43147577       9.42455391       0.00000000       0.00000000       0.00000000
Zr      13.75997682       3.94573724       7.83800305       0.00000000       0.00000000       0.00000000
Zr      20.48371107      18.53189696      12.62245893       0.00000000       0.00000000       0.00000000
Zr      19.39995335       7.12586304      12.10489235       0.00000000       0.00000000       0.00000000
Zr      19.79190730      10.79395050      11.13496617       0.00000000       0.00000000       0.00000000
Zr      14.10909461       4.93297481      11.79421404       0.00000000       0.00000000       0.00000000
857
Lattice="22.90502845 0.0 0.0 0.0 22.90502845 0.0 0.0 0.0 22.90502845" Properties=species:S:1:pos:R:3:momenta:R:3 pbc="T T T"
C       19.99091443       7.48617555       2.86350752       0.00000000       0.00000000       0.00000000
C       11.46315026      16.56397962       0.69789535       0.00000000       0.00000000       0.00000000
C       16.99037656       8.75457361       3.95163046       0.00000000       0.00000000       0.00000000
C       15.16672280      12.91510818       4.44274133       0.00000000       0.00000000       0.00000000
C        2.60505458       1.05013721      18.73378403       0.00000000       0.00000000       0.00000000
C        3.57142143      15.14947627       6.24932261       0.00000000       0.00000000       0.00000000
C        9.25308280      10.55652143       1.95930547       0.00000000       0.00000000       0.00000000
C       17.13109193      12.08420951      18.80218997       0.00000000       0.00000000       0.00000000
C       16.05670406      18.19742321       6.00195537       0.00000000       0.00000000       0.00000000
C        2.88403516       5.35524639       0.33030199       0.00000000       0.00000000       0.00000000
C        8.40823238       0.34285021      18.86187655       0.00000000       0.00000000       0.00000000
C       11.36838455       6.41494328       1.51453877       0.00000000       0.00000000       0.00000000
C        3.64576634      16.35692506      19.18692444       0.00000000       0.00000000       0.00000000
C       19.91749163      10.87731157      17.53796898       0.00000000       0.00000000       0.00000000
C        4.73594219      19.29158546      18.51482427       0.00000000       0.00000000       0.00000000
C        8.52453794      15.41469839      22.43995826       0.00000000       0.00000000       0.00000000
C       20.52488270       5.74761909      20.45507737       0.00000000       0.00000000       0.00000000
C        8.36369189       7.62884434       2.52385023       0.00000000       0.00000000       0.00000000
C        8.38938330       3.68486869      20.90537226       0.00000000       0.00000000       0.00000000
C        1.62186842      17.29954424       4.55477848       0.00000000       0.00000000       0.00000000
C       22.70390860      21.80386723       4.85310548       0.00000000       0.00000000       0.00000000
C       10.22477638      11.33893417      21.99111898       0.00000000       0.00000000       0.00000000
C        0.74986176      19.86080189      22.54548249       0.00000000       0.00000000       0.00000000
C       19.89564519       9.65960267       5.12173290       0.00000000       0.00000000       0.00000000
C       11.35483102      14.27093658      21.31701322       0.00000000       0.00000000       0.00000000
C        3.62895801      18.56467707      21.55064873       0.00000000       0.00000000       0.00000000
C        4.59907625      11.31322410      21.91794288       0.00000000       0.00000000       0.00000000
C       17.04828884      22.26537823      17.76757929       0.00000000       0.00000000       0.00000000
C       14.07652689      20.12025695       4.07387790       0.00000000       0.00000000       0.00000000
C       21.62132592      18.31918099       5.90534094       0.00000000       0.00000000       0.00000000
C       16.96633228      10.91550134       6.29912256       0.00000000       0.00000000       0.00000000
C       13.29576412      22.70535788      21.93612015       0.00000000       0.00000000       0.00000000
C       22.58453384      19.52239201       2.63055513       0.00000000       0.00000000       0.00000000
C       14.17232573      13.33580095      20.18300188       0.00000000       0.00000000       0.00000000
C        2.69978168       3.31114767      20.99578656       0.00000000       0.00000000       0.00000000
C        8.44219341      22.34425831       6.13225803       0.00000000       0.00000000       0.00000000
C        3.58555694      12.83335509       4.18189330       0.00000000       0.00000000       0.00000000
C       16.19523186      13.56747496       1.34605098       0.00000000       0.00000000       0.00000000
C        6.80482391       1.34449610       4.26614956       0.00000000       0.00000000       0.00000000
C        1.77180446       6.73596249       5.79221549       0.00000000       0.00000000       0.00000000
C       13.30345419      12.47835097       0.22107473       0.00000000       0.00000000       0.00000000
C        7.54132770      16.82376223       4.77362192       0.00000000       0.00000000       0.00000000
C        3.72928363       8.25033970      22.49143787       0.00000000       0.00000000       0.00000000
C        9.20598859       8.34547810      22.57312080       0.00000000       0.00000000       0.00000000
C       11.48761215       1.25169482      19.97776978       0.00000000       0.00000000       0.00000000
C        6.52442705       5.02994090      19.06038177       0.00000000       0.00000000       0.00000000
C       11.27864275      12.19944927      19.01955435       0.00000000       0.00000000       0.00000000
C       16.04336497       0.97592458       0.26576141       0.00000000       0.00000000       0.00000000
C        4.71776280       1.22174449       0.06991577       0.00000000       0.00000000       0.00000000
C       22.00456558       1.05322743       0.09184330       0.00000000       0.00000000       0.00000000
C       18.75983735      20.38917273      19.51163941       0.00000000       0.00000000       0.00000000
C       12.24232392      17.26574206      20.45352638       0.00000000       0.00000000       0.00000000
C        0.02290726       8.63519843       3.75868847       0.00000000       0.00000000       0.00000000
C        6.56189864       7.39647796      21.24092649       0.00000000       0.00000000       0.00000000
C       15.23856364      20.67735924       0.93249987       0.00000000       0.00000000       0.00000000
C        5.13236982       3.60617958       3.18758578       0.00000000       0.00000000       0.00000000
C        8.22321963      13.03482950      20.05234064       0.00000000       0.00000000       0.00000000
C       20.94293913       0.47241290       3.11056296       0.00000000       0.00000000       0.00000000
C        0.18089761      12.01536067      18.82566266       0.00000000       0.00000000       0.00000000
C        0.84468461       4.90932191      19.21122368       0.00000000       0.00000000       0.00000000
C       11.41485272      21.21239396       5.16976831       0.00000000       0.00000000       0.00000000
C       19.15639047       6.81439221       5.82386787       0.00000000       0.00000000       0.00000000
C        5.46213115      19.12950805       2.75502960       0.00000000       0.00000000       0.00000000
C        4.48861538       5.98066503       4.58566985       0.00000000       0.00000000       0.00000000
C       15.08890253      18.37418571      21.64969251       0.00000000       0.00000000       0.00000000
C       18.28966361      11.70193006       3.24019781       0.00000000       0.00000000       0.00000000
C        7.38090626      12.37008379       0.20488420       0.00000000       0.00000000       0.00000000
C       14.17326432       2.88636831      21.22360866       0.00000000       0.00000000       0.00000000
C        7.31431545       6.77588680       5.72271815       0.00000000       0.00000000       0.00000000
C        5.63530150      12.16877965      18.85945602       0.00000000       0.00000000       0.00000000
C        6.61875962      15.17925668      18.20012402       0.00000000       0.00000000       0.00000000
C       20.85604040      12.98308516       4.31281854       0.00000000       0.00000000       0.00000000
C       10.35504228       3.18280180       2.33234901       0.00000000       0.00000000       0.00000000
C       19.47092735      10.42613181      20.31390509       0.00000000       0.00000000       0.00000000
C       12.19403402       7.32349634      21.53561612       0.00000000       0.00000000       0.00000000
C        3.68571886       2.84175759       5.54957569       0.00000000       0.00000000       0.00000000
C        0.05172649       6.43883092       1.48171989       0.00000000       0.00000000       0.00000000
C        6.43802788      22.02172711       2.04887716       0.00000000       0.00000000       0.00000000
C       16.15133902      15.78771652       3.70882099       0.00000000       0.00000000       0.00000000
C       19.90859577       2.85568121      21.35147526       0.00000000       0.00000000       0.00000000
C       19.76129387      15.58270769      22.14423217       0.00000000       0.00000000       0.00000000
C        9.35317310       6.19301306      20.19093347       0.00000000       0.00000000       0.00000000
C       17.97358235       6.51988867      21.75681640       0.00000000       0.00000000       0.00000000
C       13.36063634      14.67835012       2.75097361       0.00000000       0.00000000       0.00000000
C       13.11075401       8.08828676      18.54930920       0.00000000       0.00000000       0.00000000
C       16.14029207       5.64182297       4.73876153       0.00000000       0.00000000       0.00000000
C       18.10841492      17.44216280      20.15981702       0.00000000       0.00000000       0.00000000
C       19.14744075      12.42317008       0.06647133       0.00000000       0.00000000       0.00000000
C        0.86687320      11.93768831       3.06883401       0.00000000       0.00000000       0.00000000
C       14.99024180       3.61888881      18.37642108       0.00000000       0.00000000       0.00000000
C       18.96647626      22.85307658      21.93610847       0.00000000       0.00000000       0.00000000
C        2.62232749      15.60443219      22.30974560       0.00000000       0.00000000       0.00000000
C        2.85027922       7.68511578       2.62572683       0.00000000       0.00000000       0.00000000
C        2.66858682      20.37588894       3.78166774       0.00000000       0.00000000       0.00000000
C       20.83053970      18.72675916      21.22734945       0.00000000       0.00000000       0.00000000
C        2.00769097      10.15768655      20.79633739       0.00000000       0.00000000       0.00000000
C        7.58755432       8.07270130      18.35253430       0.00000000       0.00000000       0.00000000
C       12.11859161      15.17972756      18.15610366       0.00000000       0.00000000       0.00000000
C       13.25900610      20.44084319      19.70702900       0.00000000       0.00000000       0.00000000
C       14.08832606      22.52850909       6.31934477       0.00000000       0.00000000       0.00000000
C       16.04287446      19.32154874      18.34567730       0.00000000       0.00000000       0.00000000
C        1.09028200       1.81323120       4.32934158       0.00000000       0.00000000       0.00000000
C       19.99850345       0.55551434      19.01662354       0.00000000       0.00000000       0.00000000
C       10.43463031      19.21852028      18.44473361       0.00000000       0.00000000       0.00000000
C       18.41391625      10.02450050      20.86293766       0.00000000       0.00000000       0.00000000
C       13.91999239       5.04073378       0.59549293       0.00000000       0.00000000       0.00000000
C       18.77906869      17.24752113       4.72093709       0.00000000       0.00000000       0.00000000
C       17.12508392      18.97893874       2.84559589       0.00000000       0.00000000       0.00000000
C       12.43720378      13.85970775       5.75155751       0.00000000       0.00000000       0.00000000
C        5.67720314      14.32499333      21.21195103       0.00000000       0.00000000       0.00000000
C        6.30836451       9.41137930       0.84492821       0.00000000       0.00000000       0.00000000
C       22.84722523       1.60740663      20.08219639       0.00000000       0.00000000       0.00000000
C       15.01403161       6.19983058      20.51803702       0.00000000       0.00000000       0.00000000
C       18.24758247       9.53566841       0.95361362       0.00000000       0.00000000       0.00000000
C       16.01661897       3.27467922       2.46418516       0.00000000       0.00000000       0.00000000
C       17.81100767       1.37147443       4.52579418       0.00000000       0.00000000       0.00000000
C        8.39408436      11.07656542      17.56075304       0.00000000       0.00000000       0.00000000
C       17.98303245      19.67956568      22.72931367       0.00000000       0.00000000       0.00000000
C       12.25953859       4.88773688      19.28106721       0.00000000       0.00000000       0.00000000
C       12.31646096      11.65724428       3.15402928       0.00000000       0.00000000       0.00000000
C       14.86491235       8.37576521      22.70906705       0.00000000       0.00000000       0.00000000
C        0.80327527      14.09390050       5.39011828       0.00000000       0.00000000       0.00000000
C        8.59675302      17.70406780       1.78956821       0.00000000       0.00000000       0.00000000
C       20.87344928      16.28998804      19.09259031       0.00000000       0.00000000       0.00000000
C       17.09208393      16.63781697       0.37751647       0.00000000       0.00000000       0.00000000
C       12.92570260      10.21926990      21.09912093       0.00000000       0.00000000       0.00000000
C        2.00520349       4.62002591       3.66619243       0.00000000       0.00000000       0.00000000
C        0.62737969       7.03803577      21.57171868       0.00000000       0.00000000       0.00000000
C        5.62269585      21.37538794       4.83296093       0.00000000       0.00000000       0.00000000
C       21.82532077      13.71948471       1.41568835       0.00000000       0.00000000       0.00000000
C        1.82903216       2.31781835       1.26950326       0.00000000       0.00000000       0.00000000
C       17.97883099      15.03971130      17.83507492       0.00000000       0.00000000       0.00000000
C        2.55684593      18.04961520       1.58197146       0.00000000       0.00000000       0.00000000
C        1.87430276      22.87087507      21.83787941       0.00000000       0.00000000       0.00000000
C       13.14403193       4.38028464       3.59119284       0.00000000       0.00000000       0.00000000
C       13.45688797      16.96685612       4.96567389       0.00000000       0.00000000       0.00000000
C       17.43983923       7.69755289      21.82242568       0.00000000       0.00000000       0.00000000
C        7.54539885      14.69794303       2.65532771       0.00000000       0.00000000       0.00000000
C       14.08021055       9.61352921       5.09190692       0.00000000       0.00000000       0.00000000
C        4.75150002       9.20101070      19.49771314       0.00000000       0.00000000       0.00000000
C       19.92348408       5.17338655       0.81189725       0.00000000       0.00000000       0.00000000
C        2.94249087      13.27359193      20.00752310       0.00000000       0.00000000       0.00000000
C       15.12391112       0.16307204       3.40626075       0.00000000       0.00000000       0.00000000
C       14.50628605      17.68343957       1.83400105       0.00000000       0.00000000       0.00000000
C       10.50388685      18.16938090       6.01163685       0.00000000       0.00000000       0.00000000
C        7.68045115      22.71975265      21.80576760       0.00000000       0.00000000       0.00000000
C        2.84031248       9.92058819       5.05442054       0.00000000       0.00000000       0.00000000
C        7.58668249       2.30444365       1.23672479       0.00000000       0.00000000       0.00000000
C       10.63451928       2.30527744      20.35550796       0.00000000       0.00000000       0.00000000
C       11.30525635       4.33350179      22.21602263       0.00000000       0.00000000       0.00000000
C       16.96566628       3.93087823      22.40350829       0.00000000       0.00000000       0.00000000
C       11.23124494      18.67783605       3.07586930       0.00000000       0.00000000       0.00000000
C       18.93628731       2.17637003       1.36665834       0.00000000       0.00000000       0.00000000
C        4.63111741      13.52597296       1.33765856       0.00000000       0.00000000       0.00000000
C       21.66586888      16.17392051       3.54173977       0.00000000       0.00000000       0.00000000
C       11.31487374      22.25968427      17.69296740       0.00000000       0.00000000       0.00000000
C       13.07050778       6.61207034       5.77128795       0.00000000       0.00000000       0.00000000
C        5.67454679       1.93089839      19.73159268       0.00000000       0.00000000       0.00000000
C        9.54031206      18.37934573      21.58206815       0.00000000       0.00000000       0.00000000
C        0.62972860      17.38086539      20.31292413       0.00000000       0.00000000       0.00000000
C       21.79557960       3.32812516       2.61487293       0.00000000       0.00000000       0.00000000
C        5.87421474      21.72018484      17.72726505       0.00000000       0.00000000       0.00000000
C        9.04441975       2.45310697      20.69217881       0.00000000       0.00000000       0.00000000
C       12.31951447       1.25707167       4.37910413       0.00000000       0.00000000       0.00000000
C       12.44003308      19.62328730      22.87208482       0.00000000       0.00000000       0.00000000
C        5.70584999      10.93444260       6.32530284       0.00000000       0.00000000       0.00000000
C       14.46248460      15.39492150      22.43224616       0.00000000       0.00000000       0.00000000
C        1.85983820       7.83507446      18.36373558       0.00000000       0.00000000       0.00000000
C       22.76263455       3.98140392      22.41169693       0.00000000       0.00000000       0.00000000
C        9.43057121       2.50522095       5.37989108       0.00000000       0.00000000       0.00000000
C       19.77389054      17.99359407       1.72400038       0.00000000       0.00000000       0.00000000
C       10.33601333       9.06982100      19.51608592       0.00000000       0.00000000       0.00000000
C       10.99501475      10.82835897       6.04978878       0.00000000       0.00000000       0.00000000
C       14.26921982      11.37799195      18.32093863       0.00000000       0.00000000       0.00000000
C       14.28089150       0.55210037      18.83553757       0.00000000       0.00000000       0.00000000
C       10.48659958       0.77668984       0.19842378       0.00000000       0.00000000       0.00000000
C        4.57187442      15.96399153       3.47425896       0.00000000       0.00000000       0.00000000
C        0.85739228      15.14537027      18.13305179       0.00000000       0.00000000       0.00000000
C       15.98602805      11.47431054      21.99614949       0.00000000       0.00000000       0.00000000
C        8.17457433       9.77372333       4.99510614       0.00000000       0.00000000       0.00000000
C        9.38743909      12.75722249       4.31675823       0.00000000       0.00000000       0.00000000
C        6.49552229      19.63771595      22.56799052       0.00000000       0.00000000       0.00000000
C        5.06892379       4.77361594       4.29082024       0.00000000       0.00000000       0.00000000
C        8.40824609      20.14950250       3.94767839       0.00000000       0.00000000       0.00000000
C       20.96010702      21.02637900       0.74003399       0.00000000       0.00000000       0.00000000
C       11.12913564       8.53199011       3.84569719       0.00000000       0.00000000       0.00000000
C        1.01743619      22.25599962       1.90333401       0.00000000       0.00000000       0.00000000
C       16.99616253       6.22023266       1.72128491       0.00000000       0.00000000       0.00000000
C       17.96686520      21.90492601       2.09385741       0.00000000       0.00000000       0.00000000
C       16.00967649       6.57772639      17.64271979       0.00000000       0.00000000       0.00000000
C       22.61356448      14.64191870      21.11233313       0.00000000       0.00000000       0.00000000
C       17.13994732       1.64529223      20.24412215       0.00000000       0.00000000       0.00000000
C        3.62481600      10.50523864       1.88954122       0.00000000       0.00000000       0.00000000
C       17.11187493      14.39517339      20.98254790       0.00000000       0.00000000       0.00000000
C       15.11240684      10.47107361       2.06168101       0.00000000       0.00000000       0.00000000
C        7.84611311       4.57734480       3.18515191       0.00000000       0.00000000       0.00000000
C       22.80168968      10.89083299       6.08877196       0.00000000       0.00000000       0.00000000
C        5.60643506       4.28759946      22.05398171       0.00000000       0.00000000       0.00000000
C       10.11236563      13.50810900       1.36040410       0.00000000       0.00000000       0.00000000
C       17.03477977      21.39203177       5.29984777       0.00000000       0.00000000       0.00000000
C        9.48363431       0.16408713       3.03127744       0.00000000       0.00000000       0.00000000
C        1.80161971      20.35869702      19.59572649       0.00000000       0.00000000       0.00000000
C       21.90277476      11.29413315      21.79514142       0.00000000       0.00000000       0.00000000
C       21.92321823      21.65195349      20.63222744       0.00000000       0.00000000       0.00000000
C        7.51579052      10.22641749      20.76306126       0.00000000       0.00000000       0.00000000
C        5.64684261       6.44236862       1.46961854       0.00000000       0.00000000       0.00000000
C       20.08541577      13.21700184      19.82869514       0.00000000       0.00000000       0.00000000
C        9.53775364      20.80712870       0.86123923       0.00000000       0.00000000       0.00000000
C       18.77607339      14.78791328       2.37404300       0.00000000       0.00000000       0.00000000
C       16.17959289      21.57909123      20.94836861       0.00000000       0.00000000       0.00000000
C        1.43239385      15.09641147       2.47502926       0.00000000       0.00000000       0.00000000
C        6.79099147      13.94424862       5.50682136       0.00000000       0.00000000       0.00000000
C       17.68101442       4.63964059      19.48348791       0.00000000       0.00000000       0.00000000
C        4.56022365      21.45849711      20.64596682       0.00000000       0.00000000       0.00000000
C       15.75112930       9.38644379      19.63208215       0.00000000       0.00000000       0.00000000
C       10.18353970       5.54843141       4.58605440       0.00000000       0.00000000       0.00000000
C       20.66275406       2.78423831       5.51153710       0.00000000       0.00000000       0.00000000
C        3.75067226       0.44381878       3.08287187       0.00000000       0.00000000       0.00000000
C        5.76614336      16.66842161       0.63724069       0.00000000       0.00000000       0.00000000
C       20.87463945       8.10927952      22.65744336       0.00000000       0.00000000       0.00000000
C       12.39711402      21.92446643       2.20185346       0.00000000       0.00000000       0.00000000
C        1.72939525      12.47401091       0.10044767       0.00000000       0.00000000       0.00000000
C        0.74841145       9.46588974       0.68710696       0.00000000       0.00000000       0.00000000
C        0.00371220      22.38511634      17.72892343       0.00000000       0.00000000       0.00000000
C        5.30215028      22.89210313      17.63299274       0.00000000       0.00000000       0.00000000
C        3.51715217      20.91146250       0.82235218       0.00000000       0.00000000       0.00000000
C       10.41398721      15.76571926       3.64615641       0.00000000       0.00000000       0.00000000
C        9.37299497      16.14350664      19.30677195       0.00000000       0.00000000       0.00000000
C       21.72579755      19.21605118      18.41121993       0.00000000       0.00000000       0.00000000
C        5.46666967       8.72949081       3.75665585       0.00000000       0.00000000       0.00000000
C       17.97941636      14.13389810       5.64162326       0.00000000       0.00000000       0.00000000
C       20.88848056       3.35346998      18.01063833       0.00000000       0.00000000       0.00000000
C       15.16792629       2.46299429       5.65918741       0.00000000       0.00000000       0.00000000
C       12.10704343       9.55072973       1.03912694       0.00000000       0.00000000       0.00000000
C        3.79421224       6.00652084      20.30225607       0.00000000       0.00000000       0.00000000
C        2.59900075       0.02401082       6.17089648       0.00000000       0.00000000       0.00000000
C        3.87964969       4.04395665      17.93330796       0.00000000       0.00000000       0.00000000
C        6.54324661      17.35970330      20.38643063       0.00000000       0.00000000       0.00000000
C        7.66880423      20.34426719      19.63701825       0.00000000       0.00000000       0.00000000
C        9.46052653       3.83494477      17.99026073       0.00000000       0.00000000       0.00000000
C       13.27320582       1.96736232       1.24938376       0.00000000       0.00000000       0.00000000
C       19.88849772      20.23593228       4.16093873       0.00000000       0.00000000       0.00000000
C       21.85048048       5.77111984       4.49963044       0.00000000       0.00000000       0.00000000
C        8.39289618       5.36430351       0.19186889       0.00000000       0.00000000       0.00000000
C        6.44972473      11.77433815       3.05666009       0.00000000       0.00000000       0.00000000
C        4.71213916      18.04578826       5.54067918       0.00000000       0.00000000       0.00000000
C       21.79567886       8.92105769      19.61010476       0.00000000       0.00000000       0.00000000
C        4.55439873       3.54785639       1.99353171       0.00000000       0.00000000       0.00000000
C       18.44092863       7.74435304      18.56518885       0.00000000       0.00000000       0.00000000
C       18.67618459       4.44257689       3.81272473       0.00000000       0.00000000       0.00000000
C       22.59584591      16.84725466       0.44396195       0.00000000       0.00000000       0.00000000
C       14.11554076       7.54057707       2.75305280       0.00000000       0.00000000       0.00000000
C       15.18988399      16.29891382      19.27850485       0.00000000       0.00000000       0.00000000
C       21.04177190      10.80452134       1.93932558       0.00000000       0.00000000       0.00000000
C       10.46270582      21.36429736      20.71915148       0.00000000       0.00000000       0.00000000
C        2.95863696      11.00243206      17.68785432       0.00000000       0.00000000       0.00000000
Hf      12.16158643       6.48405882       3.63732390       0.00000000       0.00000000       0.00000000
Hf      18.95911169      15.27639280      19.81005664       0.00000000       0.00000000       0.00000000
Hf       6.37227691       8.79145506       6.19687489       0.00000000       0.00000000       0.00000000
Hf      17.94563142       6.73469245       3.75167632       0.00000000       0.00000000       0.00000000
Hf       1.08796791       6.66969323       3.61924237       0.00000000       0.00000000       0.00000000
Hf       3.71317816      13.43223605      22.16323835       0.00000000       0.00000000       0.00000000
Hf       9.43647549       2.69554457       0.33756773       0.00000000       0.00000000       0.00000000
Hf       2.46974762      13.06539831       2.05668057       0.00000000       0.00000000       0.00000000
Hf       3.39960344       1.27429978      20.97040391       0.00000000       0.00000000       0.00000000
Hf       6.64265256       6.79165487       3.57086563       0.00000000       0.00000000       0.00000000
Hf      11.30558075       3.25215764       4.60311742       0.00000000       0.00000000       0.00000000
Hf      11.46428464      19.29335555      21.03989522       0.00000000       0.00000000       0.00000000
Hf      17.72021671       9.92717301      18.50831061       0.00000000       0.00000000       0.00000000
Hf      19.63909904      22.81746910       1.16432368       0.00000000       0.00000000       0.00000000
Hf       9.48199302       5.57408051       2.14334632       0.00000000       0.00000000       0.00000000
Hf       4.01850258      20.05603276       5.48141823       0.00000000       0.00000000       0.00000000
Hf      14.97408671       5.35745613       2.54254692       0.00000000       0.00000000       0.00000000
Hf      10.47136944      16.24150142      21.34837788       0.00000000       0.00000000       0.00000000
Hf      12.67377900      16.77915878       2.84874364       0.00000000       0.00000000       0.00000000
Hf      21.58741975       0.83263483       5.70734420       0.00000000       0.00000000       0.00000000
Hf       5.62391152       7.24138360      19.24864755       0.00000000       0.00000000       0.00000000
Hf      14.07846372       4.67014556       5.64382130       0.00000000       0.00000000       0.00000000
Hf      20.66607001       8.81563095      17.55834230       0.00000000       0.00000000       0.00000000
Hf      20.42848670      20.94656401      18.35335202       0.00000000       0.00000000       0.00000000
Hf      15.80261532      10.70283163       4.15904967       0.00000000       0.00000000       0.00000000
Hf      15.24087478      18.29122681       3.94446821       0.00000000       0.00000000       0.00000000
Hf       0.61185145      19.87139178       4.55730797       0.00000000       0.00000000       0.00000000
Hf       1.27408253       9.83793322      18.71949125       0.00000000       0.00000000       0.00000000
Hf      16.97930523       1.12898970       2.50186838       0.00000000       0.00000000       0.00000000
Hf      10.44939256      18.66194717       0.84506601       0.00000000       0.00000000       0.00000000
Hf       3.70586295      16.10023506       1.31107194       0.00000000       0.00000000       0.00000000
Hf      12.26251741       1.74317996      22.11694065       0.00000000       0.00000000       0.00000000
Hf      12.10354292      22.15429973      19.71071964       0.00000000       0.00000000       0.00000000
Hf       0.53754498      14.84411749       0.38954319       0.00000000       0.00000000       0.00000000
Hf      12.15086182      10.17863202      18.99177506       0.00000000       0.00000000       0.00000000
Hf      11.61313545      16.00012153       5.71580752       0.00000000       0.00000000       0.00000000
Hf       5.54179864      17.25111082      18.27797987       0.00000000       0.00000000       0.00000000
Hf      18.36554696      12.44995520      20.74939400       0.00000000       0.00000000       0.00000000
Hf      13.10887742       9.42867600       3.04917732       0.00000000       0.00000000       0.00000000
Hf      18.90304240      17.74686605      22.21078924       0.00000000       0.00000000       0.00000000
Hf       7.55365010      20.03143265       1.72623599       0.00000000       0.00000000       0.00000000
Hf      22.06354030       8.33075195       1.83741623       0.00000000       0.00000000       0.00000000
Hf       0.87600068      22.47504038      19.93671759       0.00000000       0.00000000       0.00000000
Hf      16.24751116       8.63470791       1.73814128       0.00000000       0.00000000       0.00000000
Hf      15.79920318       5.89481637      22.60041895       0.00000000       0.00000000       0.00000000
Hf       7.56468867      17.52759988      22.44985936       0.00000000       0.00000000       0.00000000
Hf      17.98411068      19.35915552       5.25535101       0.00000000       0.00000000       0.00000000
Hf       9.99615246      10.59947349       4.11498301       0.00000000       0.00000000       0.00000000
Hf       4.56456689       4.01207845      20.08690730       0.00000000       0.00000000       0.00000000
Hf      15.26671262      21.28180598      18.81393134       0.00000000       0.00000000       0.00000000
Hf      19.99126042      10.25776639      22.65854441       0.00000000       0.00000000       0.00000000
Hf       0.39323106      17.21350961       2.56548326       0.00000000       0.00000000       0.00000000
Hf       4.80680373      16.59301672      21.43602796       0.00000000       0.00000000       0.00000000
Hf      10.46535144      20.89458772       2.95855279       0.00000000       0.00000000       0.00000000
Hf      11.58036422      13.58917355       3.79844394       0.00000000       0.00000000       0.00000000
Hf      22.84732204       7.03677540      19.41369288       0.00000000       0.00000000       0.00000000
Hf       6.67573540       4.30449772       1.35733879       0.00000000       0.00000000       0.00000000
Hf      14.38254645      20.53846588      21.80894214       0.00000000       0.00000000       0.00000000
Hf      20.75464376       3.20782633       0.70865413       0.00000000       0.00000000       0.00000000
Hf      20.42276842       5.09568061       2.98881657       0.00000000       0.00000000       0.00000000
Hf      17.62339047      11.55675442       1.31090963       0.00000000       0.00000000       0.00000000
Nb       5.48301659      19.45488350      20.67799498       0.00000000       0.00000000       0.00000000
Nb       4.00136033      11.16426759      19.82352127       0.00000000       0.00000000       0.00000000
Nb       2.99422716       2.48512296       3.54925283       0.00000000       0.00000000       0.00000000
Nb      16.95499240       3.60623976       4.60614518       0.00000000       0.00000000       0.00000000
Nb      19.22385630       5.69829986      18.61108176       0.00000000       0.00000000       0.00000000
Nb      15.16367759       2.96231692       0.47246271       0.00000000       0.00000000       0.00000000
Nb       0.87820413       2.11159002      21.89245493       0.00000000       0.00000000       0.00000000
Nb      15.27687004       7.81191308       4.61020202       0.00000000       0.00000000       0.00000000
Nb      19.06908646       7.19237358       0.87637203       0.00000000       0.00000000       0.00000000
Nb      19.06121583       4.80080400      21.81228248       0.00000000       0.00000000       0.00000000
Nb      22.76365821       9.07007860      21.59101329       0.00000000       0.00000000       0.00000000
Nb      16.59052127       9.62457132      21.57574742       0.00000000       0.00000000       0.00000000
Nb      16.17344543      14.16522254      18.87473115       0.00000000       0.00000000       0.00000000
Nb      21.64448108      16.53297939      21.07566904       0.00000000       0.00000000       0.00000000
Nb       1.58340221      20.10258899       1.53504533       0.00000000       0.00000000       0.00000000
Nb       7.58393384      22.12515289       3.92783995       0.00000000       0.00000000       0.00000000
Nb      12.26607568       3.99865320       1.17281829       0.00000000       0.00000000       0.00000000
Nb      13.43832598      19.91255855       1.92658784       0.00000000       0.00000000       0.00000000
Nb       6.67004511      18.99306736       4.60987947       0.00000000       0.00000000       0.00000000
Nb       4.73795272      18.78408064       0.47721727       0.00000000       0.00000000       0.00000000
Nb      22.47071402      16.22627993       5.40538737       0.00000000       0.00000000       0.00000000
Nb       9.55389388      17.76238828       3.98065237       0.00000000       0.00000000       0.00000000
Nb       3.80888538       3.26920498       0.20482966       0.00000000       0.00000000       0.00000000
Nb      18.11393686       8.63801780       6.22411780       0.00000000       0.00000000       0.00000000
Nb      22.60049980      19.52438840      20.35149921       0.00000000       0.00000000       0.00000000
Nb       8.38743303       6.05406846      18.12038349       0.00000000       0.00000000       0.00000000
Nb      17.89220980      16.85934355       2.51411113       0.00000000       0.00000000       0.00000000
Nb       9.42791195      20.19804993       5.99579097       0.00000000       0.00000000       0.00000000
Nb      19.26183398      12.98787973      17.71650890       0.00000000       0.00000000       0.00000000
Nb      20.62958293      18.28977463       3.91709597       0.00000000       0.00000000       0.00000000
Nb       8.63784557      14.81929363       4.38473205       0.00000000       0.00000000       0.00000000
Nb       1.67167897      15.50365904      20.35492182       0.00000000       0.00000000       0.00000000
Nb      17.83565212       4.24932130       1.60976682       0.00000000       0.00000000       0.00000000
Nb      22.82869987      22.06406272      22.54649941       0.00000000       0.00000000       0.00000000
Nb      14.10978090      10.43513265       0.25796734       0.00000000       0.00000000       0.00000000
Nb       3.76356284      21.31594251      18.71861104       0.00000000       0.00000000       0.00000000
Nb      18.87237730      19.81376998       1.98695108       0.00000000       0.00000000       0.00000000
Nb       4.75931019      13.16963116       6.35965003       0.00000000       0.00000000       0.00000000
Nb      19.63245673       4.59508367       5.90976700       0.00000000       0.00000000       0.00000000
Nb      21.62132610       5.91004262      22.45958295       0.00000000       0.00000000       0.00000000
Nb      10.43220225       0.26875332       5.15671787       0.00000000       0.00000000       0.00000000
Nb      12.03138205       8.50395358       5.79862249       0.00000000       0.00000000       0.00000000
Nb      13.16427346      22.07521370       4.24188936       0.00000000       0.00000000       0.00000000
Nb       8.43393762       8.11702404      20.36475797       0.00000000       0.00000000       0.00000000
Nb       5.40938223       9.15958439      21.55973911       0.00000000       0.00000000       0.00000000
Nb      11.51297197       0.96273412       2.38692415       0.00000000       0.00000000       0.00000000
Nb      19.54596230       2.47352091       3.53224413       0.00000000       0.00000000       0.00000000
Nb       3.49629398      18.22284799       3.50308994       0.00000000       0.00000000       0.00000000
Nb       5.34874641      11.46760857       0.93462080       0.00000000       0.00000000       0.00000000
Nb       7.20003458       5.36767904      20.96575638       0.00000000       0.00000000       0.00000000
Nb      20.11405492      20.99024602      21.57094150       0.00000000       0.00000000       0.00000000
Nb      13.10044755       7.38044329       0.83050466       0.00000000       0.00000000       0.00000000
Ta       2.61100012      15.45433236       4.20243572       0.00000000       0.00000000       0.00000000
Ta      16.56260111       1.21905501      18.25633949       0.00000000       0.00000000       0.00000000
Ta       9.57464693      15.67336142       1.56897348       0.00000000       0.00000000       0.00000000
Ta      20.81546336       0.81741072      20.90544821       0.00000000       0.00000000       0.00000000
Ta      20.79786488      20.57114067       6.06684232       0.00000000       0.00000000       0.00000000
Ta       9.46378924      21.10578128      18.56694026       0.00000000       0.00000000       0.00000000
Ta      13.61822851      17.21946772      22.78878794       0.00000000       0.00000000       0.00000000
Ta      12.04579615      12.38126953      21.20393230       0.00000000       0.00000000       0.00000000
Ta      22.66758713      13.87425958       3.51528265       0.00000000       0.00000000       0.00000000
Ta      13.12552511      13.21336415      18.26377177       0.00000000       0.00000000       0.00000000
Ta       4.41990840      21.42116564       2.81162391       0.00000000       0.00000000       0.00000000
Ta      17.03994109      16.09469172       5.47778640       0.00000000       0.00000000       0.00000000
Ta      19.68750074      18.25910589      18.98681172       0.00000000       0.00000000       0.00000000
Ta      10.21575456       8.54928966       1.73200564       0.00000000       0.00000000       0.00000000
Ta       7.54135159      13.22745038      17.94194624       0.00000000       0.00000000       0.00000000
Ta       8.31628603      12.53279124       2.20630190       0.00000000       0.00000000       0.00000000
Ta      16.98456333      21.54423842       0.20023646       0.00000000       0.00000000       0.00000000
Ta       7.76499651      12.10313931       5.61430738       0.00000000       0.00000000       0.00000000
Ta      18.13804203       1.98710401      22.19032697       0.00000000       0.00000000       0.00000000
Ta       8.22156215       4.79833989       5.16645277       0.00000000       0.00000000       0.00000000
Ta      18.18075094      22.29790730      20.09964807       0.00000000       0.00000000       0.00000000
Ta       7.38299604       7.42977620       0.39387465       0.00000000       0.00000000       0.00000000
Ta       2.99183983       6.07378178      17.85826477       0.00000000       0.00000000       0.00000000
Ta       4.71088581       1.96206695      17.76065891       0.00000000       0.00000000       0.00000000
Ta      11.68545922      21.68108455       0.20928913       0.00000000       0.00000000       0.00000000
Ta      10.98448143      11.57376665       1.01174239       0.00000000       0.00000000       0.00000000
Ta      14.75062860       9.30907403      17.75852088       0.00000000       0.00000000       0.00000000
Ta       2.16690085       3.26754030      18.80816667       0.00000000       0.00000000       0.00000000
Ta      14.95110481       0.78022924      20.88923446       0.00000000       0.00000000       0.00000000
Ta       7.73469149       1.43112904       6.15056217       0.00000000       0.00000000       0.00000000
Ta      20.14087585      12.66999745       2.40166326       0.00000000       0.00000000       0.00000000
Ta      17.93265074      14.69405592       0.07902599       0.00000000       0.00000000       0.00000000
Ta       8.09266907      10.10482856      22.87141196       0.00000000       0.00000000       0.00000000
Ta      19.52083615       9.75275898       3.15653401       0.00000000       0.00000000       0.00000000
Ta       1.27243455      17.89032060      22.39625247       0.00000000       0.00000000       0.00000000
Ta       2.44300273      18.22701500      19.51540763       0.00000000       0.00000000       0.00000000
Ta       7.53356662      15.05748705      20.28017366       0.00000000       0.00000000       0.00000000
Ta      14.25108916      12.78402296       2.19843641       0.00000000       0.00000000       0.00000000
Ta       3.62495805       7.92657308       4.59636638       0.00000000       0.00000000       0.00000000
Ta      22.02488216       1.45495547      18.00761107       0.00000000       0.00000000       0.00000000
Ta       4.68807972      14.30178519      19.02921146       0.00000000       0.00000000       0.00000000
Ta      13.98490690       8.22598933      20.66604799       0.00000000       0.00000000       0.00000000
Ta      22.16703858      21.67281267       2.40544308       0.00000000       0.00000000       0.00000000
Ta       5.26843678      13.51288285       3.26606230       0.00000000       0.00000000       0.00000000
Ta      11.40273018      17.26036280      18.33310340       0.00000000       0.00000000       0.00000000
Ta       0.90193911      11.77238348      21.21662755       0.00000000       0.00000000       0.00000000
Ta      14.43930566      14.91364281       4.73214058       0.00000000       0.00000000       0.00000000
Ta      13.13911582       2.99327737      19.04264082       0.00000000       0.00000000       0.00000000
Ta       7.27827373       9.62201112       2.95155847       0.00000000       0.00000000       0.00000000
Ta      16.18460702       3.55767653      20.33978536       0.00000000       0.00000000       0.00000000
Ta       6.65928449      10.02844413      18.35856572       0.00000000       0.00000000       0.00000000
Ta      22.59105776       5.98137126       6.38766246       0.00000000       0.00000000       0.00000000
Ta      16.22845456      16.32322467      21.17196823       0.00000000       0.00000000       0.00000000
Ta       0.07948029       1.50466877       2.20184736       0.00000000       0.00000000       0.00000000
Ta      14.29177124      22.89099111       1.34471747       0.00000000       0.00000000       0.00000000
Ta       9.43488882       0.33912440      20.83407584       0.00000000       0.00000000       0.00000000
Ta       2.70169932      20.46946459      21.72292758       0.00000000       0.00000000       0.00000000
Ta       1.53686970       4.91707449      21.42204992       0.00000000       0.00000000       0.00000000
Ta      11.28024461       9.21988273      21.98465781       0.00000000       0.00000000       0.00000000
Ta      11.40000381       6.92268509      19.12855659       0.00000000       0.00000000       0.00000000
Ta       6.41380864      12.13864021      21.19513258       0.00000000       0.00000000       0.00000000
Ti       1.74012604      22.80966408       4.01476058       0.00000000       0.00000000       0.00000000
Ti      16.06719400       0.39271061       5.42950916       0.00000000       0.00000000       0.00000000
Ti      16.70269157       6.84375369      19.71220429       0.00000000       0.00000000       0.00000000
Ti       2.63012888       4.87723324       5.61376838       0.00000000       0.00000000       0.00000000
Ti       0.60372745      18.98296092       5.35544887       0.00000000       0.00000000       0.00000000
Ti       4.74569336       6.22094576      22.35335793       0.00000000       0.00000000       0.00000000
Ti      21.20855124      21.76043229      18.76201988       0.00000000       0.00000000       0.00000000
Ti       6.53772947      16.79752069       2.74401637       0.00000000       0.00000000       0.00000000
Ti       8.65362874      22.78438246       0.86310493       0.00000000       0.00000000       0.00000000
Ti       9.51305942       3.61739764      22.47882709       0.00000000       0.00000000       0.00000000
Ti      15.55083776      15.56882511       1.69834088       0.00000000       0.00000000       0.00000000
Ti       5.72029703       3.05437736       4.97785556       0.00000000       0.00000000       0.00000000
Ti      22.85074381      11.62679219       1.16478049       0.00000000       0.00000000       0.00000000
Ti       5.80366099      15.82622644       5.57936968       0.00000000       0.00000000       0.00000000
Ti       2.07706788      11.86623290       5.28235502       0.00000000       0.00000000       0.00000000
Ti      21.91462736       6.45415475      18.90605513       0.00000000       0.00000000       0.00000000
Ti      10.25995704       4.31590499      19.92572002       0.00000000       0.00000000       0.00000000
Ti      20.99618605      13.38834859      21.89024882       0.00000000       0.00000000       0.00000000
Ti      17.09891958      13.83785372       3.44337613       0.00000000       0.00000000       0.00000000
Ti       9.41854407      11.22827334      19.93745130       0.00000000       0.00000000       0.00000000
Ti      21.78353233      14.29458099      19.04018890       0.00000000       0.00000000       0.00000000
Ti       8.98850142      13.19766553      22.15962178       0.00000000       0.00000000       0.00000000
Ti       8.69305484       2.49440078       3.12447864       0.00000000       0.00000000       0.00000000
Ti       2.93052043      10.34576942       0.01987729       0.00000000       0.00000000       0.00000000
Ti      22.22323823       1.07423635       4.73622969       0.00000000       0.00000000       0.00000000
Ti       4.65729932       8.32285941       1.50016228       0.00000000       0.00000000       0.00000000
Ti      20.93279269       7.66716123       4.79034765       0.00000000       0.00000000       0.00000000
Ti      15.32634770      11.76812305      19.86601454       0.00000000       0.00000000       0.00000000
Ti       9.16219645       7.63752052       4.76944598       0.00000000       0.00000000       0.00000000
Ti      16.25813168      18.64113315       0.58238258       0.00000000       0.00000000       0.00000000
Ti       3.90528593       5.56852043       2.42183339       0.00000000       0.00000000       0.00000000
Ti      15.29027036      13.57270440      22.25949465       0.00000000       0.00000000       0.00000000
Ti       6.55516011      22.24123131      19.77185847       0.00000000       0.00000000       0.00000000
Ti       6.77047036      20.00230657      17.75198556       0.00000000       0.00000000       0.00000000
Ti       4.01220670       0.56000478      20.26381495       0.00000000       0.00000000       0.00000000
Ti      10.04040295       6.35136729      22.25225506       0.00000000       0.00000000       0.00000000
Zr       0.08744858       3.79684027       4.60229747       0.00000000       0.00000000       0.00000000
Zr       0.89105053      12.91190747      20.74276196       0.00000000       0.00000000       0.00000000
Zr      13.17667537      11.62799071       5.50474530       0.00000000       0.00000000       0.00000000
Zr      13.18616374       5.27016847      21.40079538       0.00000000       0.00000000       0.00000000
Zr       5.67968807       1.50161048       2.20130063       0.00000000       0.00000000       0.00000000
Zr      13.92324361      18.41874786      19.45394170       0.00000000       0.00000000       0.00000000
Zr       0.98743844       4.47542346       1.53382038       0.00000000       0.00000000       0.00000000
Zr      19.96479909      15.20262620       4.66338607       0.00000000       0.00000000       0.00000000
Zr       1.08948835       8.96517482       5.94692220       0.00000000       0.00000000       0.00000000
Zr      12.26347755      14.32460029       0.69084518       0.00000000       0.00000000       0.00000000
Zr      14.06600347       2.35909942       3.46669689       0.00000000       0.00000000       0.00000000
Zr      21.80297064      18.95995371       0.42942153       0.00000000       0.00000000       0.00000000
Zr       2.80481905       8.06744985      20.55146525       0.00000000       0.00000000       0.00000000
Zr       6.59805174      14.39232170       0.66639885       0.00000000       0.00000000       0.00000000
Zr      13.31971080      15.24797278      20.42706568       0.00000000       0.00000000       0.00000000
Zr      15.07171918      20.42266759       6.18164222       0.00000000       0.00000000       0.00000000
Zr      18.94307168      11.99545943       5.35606112       0.00000000       0.00000000       0.00000000
Zr       7.64134890       2.87380570      18.98627193       0.00000000       0.00000000       0.00000000
Zr      16.89758649      17.29786595      17.96225983       0.00000000       0.00000000       0.00000000
Zr      15.84141552      20.97750959       3.26598462       0.00000000       0.00000000       0.00000000
Zr       4.62562644      10.84982718       4.31350762       0.00000000       0.00000000       0.00000000
Zr      12.43146350      19.14836149       5.32176590       0.00000000       0.00000000       0.00000000
Zr       8.48022336      18.15085752      19.47070205       0.00000000       0.00000000       0.00000000
Zr      18.95877513      22.21622227       4.42579646       0.00000000       0.00000000       0.00000000
Zr      21.93218874      10.57739355       4.24126211       0.00000000       0.00000000       0.00000000
Zr       2.64554009       0.19552417       1.03102187       0.00000000       0.00000000       0.00000000
Zr      20.50082822      15.93321626       1.45143180       0.00000000       0.00000000       0.00000000
Zr       5.44260754      21.81448137      22.65071182       0.00000000       0.00000000       0.00000000
Zr       4.54150882       0.63049714       5.26166385       0.00000000       0.00000000       0.00000000
Zr      14.11543901       5.82311816      18.40562035       0.00000000       0.00000000       0.00000000
Zr      21.74165880      12.87472491       6.38055768       0.00000000       0.00000000       0.00000000
Zr       2.18077003      13.09444415      17.80008066       0.00000000       0.00000000       0.00000000
Zr      22.57718760      17.12416657      17.94230041       0.00000000       0.00000000       0.00000000
Zr      21.85450102       3.60090512      20.40339464       0.00000000       0.00000000       0.00000000
Zr      10.42935330       1.62985329      17.86198668       0.00000000       0.00000000       0.00000000
Zr      21.15065295      10.92317689      19.44149219       0.00000000       0.00000000       0.00000000
Zr       1.97195923       7.47633882       0.33065744       0.00000000       0.00000000       0.00000000
Zr      19.59878579       7.95878419      20.47996622       0.00000000       0.00000000       0.00000000
Zr       8.62116973      20.64702970      21.59397910       0.00000000       0.00000000       0.00000000
Zr       6.72521109       2.27440798      21.88066705       0.00000000       0.00000000       0.00000000
Zr      16.85049020      19.19884419      20.56034210       0.00000000       0.00000000       0.00000000
Zr      19.05789739       2.42405879      19.07973687       0.00000000       0.00000000       0.00000000
Zr       9.99565217      14.01473939      19.25843602       0.00000000       0.00000000       0.00000000
Zr       1.65137890       9.82237918       2.75793425       0.00000000       0.00000000       0.00000000
C        1.88599830       1.46008938       7.72026426       0.00000000       0.00000000       0.00000000
C        7.52803005      10.75961658       6.66253331       0.00000000       0.00000000       0.00000000
C        5.03802566       5.71667112       7.54402264       0.00000000       0.00000000       0.00000000
C        5.01863919       0.03270849       7.45416146       0.00000000       0.00000000       0.00000000
C        6.91845879       3.87446921       6.46253031       0.00000000       0.00000000       0.00000000
C        1.53412946       0.09980535       7.15292718       0.00000000       0.00000000       0.00000000
C        0.24312044      10.84731020       7.73164782       0.00000000       0.00000000       0.00000000
C        7.93349599      12.20520105       7.06653249       0.00000000       0.00000000       0.00000000
C        3.16563278      12.21053115       7.31807147       0.00000000       0.00000000       0.00000000
C        5.65568604       8.45696238       7.59323493       0.00000000       0.00000000       0.00000000
C        0.52613067      17.89814203       7.55434197       0.00000000       0.00000000       0.00000000
C        8.62117579       6.64546128       7.04679078       0.00000000       0.00000000       0.00000000
Hf       0.04524131       6.21760685       6.42432864       0.00000000       0.00000000       0.00000000
Hf       1.34037404      15.79388263       7.76595094       0.00000000       0.00000000       0.00000000
Nb       0.32916290       8.23486658       8.11374991       0.00000000       0.00000000       0.00000000
Nb       6.50257063       1.42215858       7.41568234       0.00000000       0.00000000       0.00000000
Ta       5.41071722      16.35772565       7.67175047       0.00000000       0.00000000       0.00000000
Ta       3.92581194       7.39922834       7.90438804       0.00000000       0.00000000       0.00000000
Ti       0.33440045       3.14055269       7.37377756       0.00000000       0.00000000       0.00000000
Ti       7.67656662      14.33946260       7.64213966       0.00000000       0.00000000       0.00000000
Ti       4.15037554      13.76736530       8.11517186       0.00000000       0.00000000       0.00000000
Ti       7.76467108       8.99959759       7.36487221       0.00000000       0.00000000       0.00000000
Zr       4.45586947       2.93851511       7.36522630       0.00000000       0.00000000       0.00000000
Zr       0.95850377      12.42184886       6.44050082       0.00000000       0.00000000       0.00000000
Zr       8.82665659       4.02378215       7.59480766       0.00000000       0.00000000       0.00000000
C        8.72184682      18.40050605      13.73376619       0.00000000       0.00000000       0.00000000
C        1.63713508       8.48188698      16.63731097       0.00000000       0.00000000       0.00000000
C        6.06210288      13.55214828      14.37942604       0.00000000       0.00000000       0.00000000
C        8.58552412       7.20947704      10.72361526       0.00000000       0.00000000       0.00000000
C        4.18267803      19.59512662      10.97060324       0.00000000       0.00000000       0.00000000
C        4.21948582      19.77700811       9.56532523       0.00000000       0.00000000       0.00000000
C        4.96006964       3.51033057       9.23038791       0.00000000       0.00000000       0.00000000
C        6.04486291      10.14413365      15.45498934       0.00000000       0.00000000       0.00000000
C        0.30192892      14.48913995       9.97930456       0.00000000       0.00000000       0.00000000
C        3.31424072      16.40413198      12.46590567       0.00000000       0.00000000       0.00000000
C        5.12351395       2.09945940      13.86165627       0.00000000       0.00000000       0.00000000
C        1.66095121       5.94694635      10.29875442       0.00000000       0.00000000       0.00000000
C        0.80261026       0.04187515      16.63768098       0.00000000       0.00000000       0.00000000
C        6.99790197      10.59258017      10.31101191       0.00000000       0.00000000       0.00000000
C        3.17261559       3.31927507      11.48561083       0.00000000       0.00000000       0.00000000
C        0.98210535      19.42585414      11.97973841       0.00000000       0.00000000       0.00000000
C        3.29825255       6.29032603      11.91916006       0.00000000       0.00000000       0.00000000
Ti       7.95641705       7.73831753      16.22969241       0.00000000       0.00000000       0.00000000
C        2.17848111       6.88895529      12.55160198       0.00000000       0.00000000       0.00000000
C        2.49453214       7.21615425      16.23850864       0.00000000       0.00000000       0.00000000
C        3.54093445      13.07537909      12.75906491       0.00000000       0.00000000       0.00000000
C        0.80142678      20.66097962      12.60407195       0.00000000       0.00000000       0.00000000
C        6.62655919       4.15466386      11.26927467       0.00000000       0.00000000       0.00000000
C        7.59362986       7.62744590      10.02175424       0.00000000       0.00000000       0.00000000
C        6.04209864      13.98849821       9.20355422       0.00000000       0.00000000       0.00000000
C        2.28651864      10.94679990      15.22337522       0.00000000       0.00000000       0.00000000
C        9.06482410       2.32559027      15.65024686       0.00000000       0.00000000       0.00000000
C        5.76570207      19.23846427      13.22188222       0.00000000       0.00000000       0.00000000
C        4.68122441      10.14088211      17.14245194       0.00000000       0.00000000       0.00000000
C        7.40588429      17.81716583      11.00042438       0.00000000       0.00000000       0.00000000
C        2.75057557      12.30271249      15.76701276       0.00000000       0.00000000       0.00000000
C        8.83270909      15.44815588      15.46273747       0.00000000       0.00000000       0.00000000
C        6.93775744      16.91767522       8.65026860       0.00000000       0.00000000       0.00000000
C        6.94226060       4.97087296      17.19329761       0.00000000       0.00000000       0.00000000
C        5.92733404      10.66752571      16.85105438       0.00000000       0.00000000       0.00000000
C        1.75939328       6.83074965       9.09390506       0.00000000       0.00000000       0.00000000
C        7.85416711      16.65088984      15.42057764       0.00000000       0.00000000       0.00000000
C        8.43417539       3.81739828      14.04150356       0.00000000       0.00000000       0.00000000
C        8.11965613      14.28387100      15.89051154       0.00000000       0.00000000       0.00000000
C        2.19964683       9.85115548      11.41424942       0.00000000       0.00000000       0.00000000
C        2.55673092      18.29996430      15.09029421       0.00000000       0.00000000       0.00000000
C        0.56824732      19.98230004      17.46303311       0.00000000       0.00000000       0.00000000
C        0.01430012      15.49058115      15.76988972       0.00000000       0.00000000       0.00000000
C        8.93703868       1.47211850      11.52461998       0.00000000       0.00000000       0.00000000
C        3.76515576       2.26110897      11.08380314       0.00000000       0.00000000       0.00000000
C        5.10329423      15.85671199      15.65245459       0.00000000       0.00000000       0.00000000
C        9.13812821       7.48518512      16.16713967       0.00000000       0.00000000       0.00000000
C        2.23537781      18.26575317      16.50010744       0.00000000       0.00000000       0.00000000
C        4.85202199       7.15380037       9.95357258       0.00000000       0.00000000       0.00000000
C        5.61196654       2.60607794      15.03543473       0.00000000       0.00000000       0.00000000
C        8.73117533       2.59675731      10.37372707       0.00000000       0.00000000       0.00000000
C        4.51826469       1.73121097      12.56637223       0.00000000       0.00000000       0.00000000
Hf       0.18276872       5.19643522      12.26949784       0.00000000       0.00000000       0.00000000
Hf       0.96623835      13.75471296      14.81566404       0.00000000       0.00000000       0.00000000
Hf       0.57092316      19.69989703      15.27097086       0.00000000       0.00000000       0.00000000
Hf       3.40270139      18.86435335      12.93720304       0.00000000       0.00000000       0.00000000
Hf       7.20549198       1.81472691      14.20486611       0.00000000       0.00000000       0.00000000
Hf       3.42117528       0.55358205      14.52398492       0.00000000       0.00000000       0.00000000
Hf       6.62908061      15.73802871      10.66934734       0.00000000       0.00000000       0.00000000
Hf       2.11988163      15.79933652      16.47914538       0.00000000       0.00000000       0.00000000
Nb       2.17925328      12.88134877       8.99781522       0.00000000       0.00000000       0.00000000
Nb       6.35144914      11.42836596       8.46345647       0.00000000       0.00000000       0.00000000
Nb       9.38595809       4.65036262      11.46422387       0.00000000       0.00000000       0.00000000
Nb       2.31376221       5.09872462      16.87088175       0.00000000       0.00000000       0.00000000
Nb       9.10903195       9.57114763      10.56661398       0.00000000       0.00000000       0.00000000
Nb       1.08489032      16.40328466      14.05194950       0.00000000       0.00000000       0.00000000
Nb       1.95958370      11.73747180      13.14292736       0.00000000       0.00000000       0.00000000
Nb       3.59855210       5.15136971      10.20785331       0.00000000       0.00000000       0.00000000
Nb       4.91800523       4.32873574      17.19826905       0.00000000       0.00000000       0.00000000
Nb       0.06845004      10.26461839      10.01942652       0.00000000       0.00000000       0.00000000
Nb       4.09669238       9.40250175      12.41575614       0.00000000       0.00000000       0.00000000
Nb       5.44614325      15.57484119      17.41388319       0.00000000       0.00000000       0.00000000
Ta       0.47413953       1.60258424       9.79973573       0.00000000       0.00000000       0.00000000
Ta       6.29315111       5.70409633       8.98251570       0.00000000       0.00000000       0.00000000
Ta       6.29845630      17.12388929      14.17136185       0.00000000       0.00000000       0.00000000
Ta       0.97154525       2.13122681      17.38263438       0.00000000       0.00000000       0.00000000
Ta       3.33934327      20.31112763      16.15848497       0.00000000       0.00000000       0.00000000
Ta       7.72878114      19.21654932      12.34695792       0.00000000       0.00000000       0.00000000
Ta       6.93779206      12.28276015      16.48677962       0.00000000       0.00000000       0.00000000
Ta       1.29604039       0.00137195      11.82070608       0.00000000       0.00000000       0.00000000
Ta       6.78354354       2.35728465      17.12618573       0.00000000       0.00000000       0.00000000
Ta       7.05768124      12.57106132      11.13247025       0.00000000       0.00000000       0.00000000
Ta       6.46870164       2.63131490      10.07332840       0.00000000       0.00000000       0.00000000
Ta       3.49695329       1.39456222       9.34480881       0.00000000       0.00000000       0.00000000
Ta       0.36880070      10.02586797      14.87143488       0.00000000       0.00000000       0.00000000
Ta       6.60449122      18.92992368       9.52737925       0.00000000       0.00000000       0.00000000
Ti       5.49451672       9.12060216      10.17865080       0.00000000       0.00000000       0.00000000
Ti       5.00848707      18.30086216      16.83509473       0.00000000       0.00000000       0.00000000
Ti       6.84356467       4.69430177      14.74813470       0.00000000       0.00000000       0.00000000
Ti       4.40496798       6.22672387      14.76770034       0.00000000       0.00000000       0.00000000
Ti       0.87212763       7.34107293      14.33693110       0.00000000       0.00000000       0.00000000
Ti       2.18494032      20.36988439      10.30302996       0.00000000       0.00000000       0.00000000
Ti       3.45087349       8.88277245      15.68304393       0.00000000       0.00000000       0.00000000
Ti       7.72087105      14.51528511      13.56441980       0.00000000       0.00000000       0.00000000
Ti       6.03239807       8.64515552      16.71259674       0.00000000       0.00000000       0.00000000
Ti       1.80160629       8.22019859      10.62145001       0.00000000       0.00000000       0.00000000
Ti       9.22643307       6.69286766      13.63587345       0.00000000       0.00000000       0.00000000
Zr       8.78198404       9.48236680      15.21593237       0.00000000       0.00000000       0.00000000
Zr       1.46187367      14.64672077      11.91972301       0.00000000       0.00000000       0.00000000
Zr       2.72413421      10.03994085       8.89304935       0.00000000       0.00000000       0.00000000
Zr       8.34405051      19.01191938      15.66819576       0.00000000       0.00000000       0.00000000
Zr       9.38538729      16.92465767      11.38373378       0.00000000       0.00000000       0.00000000
Zr       8.77793127       0.44241911       9.74799017       0.00000000       0.00000000       0.00000000
Zr       4.64871171      11.42536294      14.86990893       0.00000000       0.00000000       0.00000000
Zr       5.47102912       4.19042998      12.94614119       0.00000000       0.00000000       0.00000000
Zr       0.96301767       2.74099501      12.52097414       0.00000000       0.00000000       0.00000000
Zr       9.16064650       4.48790313      16.40551246       0.00000000       0.00000000       0.00000000
Zr       4.13642366      15.04102356      13.70786258       0.00000000       0.00000000       0.00000000
Zr       4.35456345      11.63368696      10.80658020       0.00000000       0.00000000       0.00000000
C        9.25092527      21.72239906       7.32407660       0.00000000       0.00000000       0.00000000
C        1.85004229      21.97832935       7.33097220       0.00000000       0.00000000       0.00000000
C        3.46389234      22.86819222       7.16990743       0.00000000       0.00000000       0.00000000
C        6.18753185      21.02214009       6.42310432       0.00000000       0.00000000       0.00000000
C        2.59603369      21.06688616       6.54601706       0.00000000       0.00000000       0.00000000
Ti       4.29469779      21.06564080       7.52584502       0.00000000       0.00000000       0.00000000
C        1.53273660      21.64251420      15.50192077       0.00000000       0.00000000       0.00000000
C        8.18823745      22.83721413      13.52597338       0.00000000       0.00000000       0.00000000
C        4.23346898      21.17935428      14.55187458       0.00000000       0.00000000       0.00000000
C        7.93079856      21.50200093      16.23353471       0.00000000       0.00000000       0.00000000
C        7.49061084      22.90352675      17.47928312       0.00000000       0.00000000       0.00000000
C        8.90377556      21.71975092      12.93679062       0.00000000       0.00000000       0.00000000
Hf       8.71166044      22.73986642      10.30990241       0.00000000       0.00000000       0.00000000
Nb       6.90263828      21.80798191       8.36345415       0.00000000       0.00000000       0.00000000
Nb       0.96521234      22.78319823      11.67717342       0.00000000       0.00000000       0.00000000
Ti       5.84794840      21.21161237      13.77521106       0.00000000       0.00000000       0.00000000
Ti       9.36394799      22.12240699      15.38369979       0.00000000       0.00000000       0.00000000
Ti       2.48702304      21.23583655      13.66212256       0.00000000       0.00000000       0.00000000
C       14.05970684       7.04301821       7.22042030       0.00000000       0.00000000       0.00000000
C       15.21691106       7.48716693       7.64045266       0.00000000       0.00000000       0.00000000
C        9.88658329      17.49384481       6.83602788       0.00000000       0.00000000       0.00000000
C       13.91153531       9.49266807       7.88956788       0.00000000       0.00000000       0.00000000
C       11.62434428      20.28464994       7.48855331       0.00000000       0.00000000       0.00000000
C       10.68276910      13.50915388       7.28091048       0.00000000       0.00000000       0.00000000
C       11.99772081      11.28002507       8.04510106       0.00000000       0.00000000       0.00000000
C       20.49007368       6.30453145       6.64906062       0.00000000       0.00000000       0.00000000
C       22.62038915       2.74989121       6.99238303       0.00000000       0.00000000       0.00000000
C       22.81156460       8.49612787       6.69265054       0.00000000       0.00000000       0.00000000
C       20.06359302      14.91194494       8.13114678       0.00000000       0.00000000       0.00000000
C       19.68452264       9.13497943       7.17984774       0.00000000       0.00000000       0.00000000
C       15.27936988      10.02565112       7.75982608       0.00000000       0.00000000       0.00000000
C       15.05765585      17.08749227       7.82733445       0.00000000       0.00000000       0.00000000
Hf      22.45131670       0.72221072       7.02434713       0.00000000       0.00000000       0.00000000
Hf      18.10843694      13.44630396       7.50954310       0.00000000       0.00000000       0.00000000
Hf      16.77407338      15.78150337       8.15542739       0.00000000       0.00000000       0.00000000
Hf      12.58015093      13.76324862       7.99485791       0.00000000       0.00000000       0.00000000
Ta      20.69252729      13.33753374       7.41857472       0.00000000       0.00000000       0.00000000
Ta      11.15914668       9.22885749       7.51674908       0.00000000       0.00000000       0.00000000
Ta      17.44358647       0.75192711       7.18666448       0.00000000       0.00000000       0.00000000
Ta      13.58838090      18.60928983       7.00773806       0.00000000       0.00000000       0.00000000
Ti      10.36683572      15.72617775       7.05953516       0.00000000       0.00000000       0.00000000
Ti      19.47823394      11.10148509       6.76373555       0.00000000       0.00000000       0.00000000
Ti      22.31982003      18.85312280       7.37555601       0.00000000       0.00000000       0.00000000
Ti      20.27020134       2.89714185       7.79958251       0.00000000       0.00000000       0.00000000
Zr      18.09135072       6.90375213       6.54475352       0.00000000       0.00000000       0.00000000
Zr      20.18529066      16.31280943       6.78371656       0.00000000       0.00000000       0.00000000
C       21.19616780      15.35927747      15.87643509       0.00000000       0.00000000       0.00000000
C       19.19179449      19.59356529       8.50594462       0.00000000       0.00000000       0.00000000
C       13.35460942       1.27773376      10.53939652       0.00000000       0.00000000       0.00000000
C       18.18678364       0.23484784      11.42374064       0.00000000       0.00000000       0.00000000
C       19.56120243      18.15280086      16.00840981       0.00000000       0.00000000       0.00000000
C        9.55429852       0.30844683      12.23006602       0.00000000       0.00000000       0.00000000
C       18.75152681      18.12327081      10.42677811       0.00000000       0.00000000       0.00000000
C        9.83987659      11.81309639      10.95749736       0.00000000       0.00000000       0.00000000
C        9.89826311      15.22220409      13.05516602       0.00000000       0.00000000       0.00000000
C       14.14323946      14.68707544       9.67878511       0.00000000       0.00000000       0.00000000
C       10.78698368       9.31602392      13.72915898       0.00000000       0.00000000       0.00000000
C       17.07342469      11.59371557       8.47421672       0.00000000       0.00000000       0.00000000
C       21.52079344       7.65190395      13.78923604       0.00000000       0.00000000       0.00000000
C       20.55647937      11.67403147       8.35348408       0.00000000       0.00000000       0.00000000
C       16.09932802       0.25146909       9.10065538       0.00000000       0.00000000       0.00000000
C       10.07791420      19.27824099      11.83382944       0.00000000       0.00000000       0.00000000
C       10.26121684      13.63408465      13.56851497       0.00000000       0.00000000       0.00000000
C       20.39178144      20.76640118      11.04416756       0.00000000       0.00000000       0.00000000
C       15.56086745      11.97667947      15.36858251       0.00000000       0.00000000       0.00000000
C       17.56453767      18.00407468      10.11038554       0.00000000       0.00000000       0.00000000
C       12.75340064      19.89035342      14.91389495       0.00000000       0.00000000       0.00000000
C       11.24667491       6.51467734      14.37208612       0.00000000       0.00000000       0.00000000
C       20.00321189      10.76897926      15.11492105       0.00000000       0.00000000       0.00000000
C       15.58083575      15.22733689      12.44721644       0.00000000       0.00000000       0.00000000
C       16.86907597       3.06704329      13.41124394       0.00000000       0.00000000       0.00000000
C       11.01505251      10.92391308      14.05021913       0.00000000       0.00000000       0.00000000
C       13.58136778      15.52080821      14.22290841       0.00000000       0.00000000       0.00000000
C       19.96391237      15.25843975      11.46962858       0.00000000       0.00000000       0.00000000
C       17.12030045       6.96423009      13.04823770       0.00000000       0.00000000       0.00000000
C       15.89468072      11.79614546      13.81270855       0.00000000       0.00000000       0.00000000
C       14.17920235      20.00430392       8.65946668       0.00000000       0.00000000       0.00000000
C        9.78694742      14.74806489       9.56098532       0.00000000       0.00000000       0.00000000
C       11.94668204       1.75801891      13.25609674       0.00000000       0.00000000       0.00000000
C       15.12151671       5.70125230      11.89753733       0.00000000       0.00000000       0.00000000
C       20.13395873       3.07307208      13.75096633       0.00000000       0.00000000       0.00000000
C       11.39454618      18.14678176      13.78030759       0.00000000       0.00000000       0.00000000
C       17.25833952      12.66794283       9.65680666       0.00000000       0.00000000       0.00000000
C       14.08767502       9.83460048      11.41765119       0.00000000       0.00000000       0.00000000
C       18.28467465       1.93760584      17.12025676       0.00000000       0.00000000       0.00000000
C       22.53077088      17.34489680      10.27580395       0.00000000       0.00000000       0.00000000
C       21.95818177       8.89406149      13.17876809       0.00000000       0.00000000       0.00000000
C       20.85646437       1.31698910      11.72336359       0.00000000       0.00000000       0.00000000
C       19.69211819       5.34112881      11.77009208       0.00000000       0.00000000       0.00000000
C       21.72923937       1.86271134      10.76177369       0.00000000       0.00000000       0.00000000
C       22.78885768      12.09948632      10.65642028       0.00000000       0.00000000       0.00000000
C       12.72775093      12.45905298      10.01938194       0.00000000       0.00000000       0.00000000
C       12.48439216       7.18979564      14.75607739       0.00000000       0.00000000       0.00000000
C       13.79356666      15.22955345      15.42498125       0.00000000       0.00000000       0.00000000
C        9.56159096       9.63843013       8.53213611       0.00000000       0.00000000       0.00000000
C       16.42321637      14.88128199      11.31206127       0.00000000       0.00000000       0.00000000
C       17.45138626       9.84915377      16.31229921       0.00000000       0.00000000       0.00000000
C       12.62361339      11.33604154      13.95119719       0.00000000       0.00000000       0.00000000
C       15.64347796      20.71867637      11.24856230       0.00000000       0.00000000       0.00000000
C       11.04725829      18.20532156      12.38753740       0.00000000       0.00000000       0.00000000
C       15.13934050       2.88835361       8.28247619       0.00000000       0.00000000       0.00000000
C       20.05270921       0.55809278      15.11537778       0.00000000       0.00000000       0.00000000
C       20.67842757       3.23771572      15.14640120       0.00000000       0.00000000       0.00000000
C       11.87336470       7.44164716       9.12864614       0.00000000       0.00000000       0.00000000
C       14.95551667       4.85852679      10.73349713       0.00000000       0.00000000       0.00000000
C       21.20852074      19.72946596      14.01336191       0.00000000       0.00000000       0.00000000
C       21.09602642       6.55206805      14.36050116       0.00000000       0.00000000       0.00000000
C       19.01431959       4.08142772      11.09852085       0.00000000       0.00000000       0.00000000
C       20.39720528       5.76575325       9.82683128       0.00000000       0.00000000       0.00000000
C       10.68737462      15.84450509       8.81907836       0.00000000       0.00000000       0.00000000
C       16.27406258      18.52809991      15.29607343       0.00000000       0.00000000       0.00000000
C       19.85301929      15.76515401      16.48994645       0.00000000       0.00000000       0.00000000
C       22.80623293      18.07980803      16.91453171       0.00000000       0.00000000       0.00000000
C       13.92247764      15.82341664      10.71808100       0.00000000       0.00000000       0.00000000
C       16.68685461      18.53394625      16.68917017       0.00000000       0.00000000       0.00000000
C       20.26613099      19.26210146       9.29985727       0.00000000       0.00000000       0.00000000
C       22.40799932      13.47995280      10.97544313       0.00000000       0.00000000       0.00000000
C       17.72029791       9.37375880      10.55221387       0.00000000       0.00000000       0.00000000
C       18.23493005       8.06327165      12.87456422       0.00000000       0.00000000       0.00000000
C       19.01525756       4.74651176      16.06224192       0.00000000       0.00000000       0.00000000
C       22.10767257      17.59099048      11.56699738       0.00000000       0.00000000       0.00000000
C       19.93548153      12.26704726      14.63473690       0.00000000       0.00000000       0.00000000
C       13.45448398      16.98925476      11.00578261       0.00000000       0.00000000       0.00000000
Hf      15.73981498      14.07610852      14.32846155       0.00000000       0.00000000       0.00000000
Hf      16.03135866       2.17936602      17.28075380       0.00000000       0.00000000       0.00000000
Hf      18.88586848       7.61646380      10.74382775       0.00000000       0.00000000       0.00000000
Hf      16.72381954       2.97249691       9.51934975       0.00000000       0.00000000       0.00000000
Hf      21.03873175      19.59321185      16.25256905       0.00000000       0.00000000       0.00000000
Hf      11.45251422      11.45251422      11.96281572       0.00000000       0.00000000       0.00000000
Hf      20.63898954      17.07616867      14.72446703       0.00000000       0.00000000       0.00000000
Hf      15.74308255       5.43140130       8.56335599       0.00000000       0.00000000       0.00000000
Hf      14.77262233       6.31754795      13.92851753       0.00000000       0.00000000       0.00000000
Hf       9.87190149      12.19324407       8.73202367       0.00000000       0.00000000       0.00000000
Hf      21.85293076      11.13550600      12.65668459       0.00000000       0.00000000       0.00000000
Hf      18.65789669       6.79622482      16.52412213       0.00000000       0.00000000       0.00000000
Hf      17.15015892      19.01829769      12.32012386       0.00000000       0.00000000       0.00000000
Hf      18.64856416       2.23789305      12.33753939       0.00000000       0.00000000       0.00000000
Hf      21.79159039       9.83255895      15.27554075       0.00000000       0.00000000       0.00000000
Hf      10.94189086      19.24057744      16.99275416       0.00000000       0.00000000       0.00000000
Hf      13.98742327       7.98748036       9.61599070       0.00000000       0.00000000       0.00000000
Nb      21.54777627       8.17814643       8.39054743       0.00000000       0.00000000       0.00000000
Nb      13.88465779       9.57468127      13.69352189       0.00000000       0.00000000       0.00000000
Nb      11.54513366       7.86196165      12.56207298       0.00000000       0.00000000       0.00000000
Nb      19.12319022      16.93309018      12.16983865       0.00000000       0.00000000       0.00000000
Nb       9.96362596       6.67201345       9.06391756       0.00000000       0.00000000       0.00000000
Nb      21.19874223       2.18149725      16.74157837       0.00000000       0.00000000       0.00000000
Nb      10.19657678      16.87383657      14.67381379       0.00000000       0.00000000       0.00000000
Nb      17.01683924       4.70725327      11.86073244       0.00000000       0.00000000       0.00000000
Nb      21.32296778      15.57164321       9.90190411       0.00000000       0.00000000       0.00000000
Nb      15.79183816      16.67607367      13.87643000       0.00000000       0.00000000       0.00000000
Nb      13.20774310       0.08822126      14.48160512       0.00000000       0.00000000       0.00000000
Nb      12.61107563      13.88021962      13.92740928       0.00000000       0.00000000       0.00000000
Nb      14.65877227      19.73703472      15.74129544       0.00000000       0.00000000       0.00000000
Nb      21.10185228      12.45977987      17.14778975       0.00000000       0.00000000       0.00000000
Nb      19.61398867       5.36501714       8.52276010       0.00000000       0.00000000       0.00000000
Ta      13.98141281      13.32210480      11.21624661       0.00000000       0.00000000       0.00000000
Ta      10.18221380      12.77963529      16.35950944       0.00000000       0.00000000       0.00000000
Ta      18.07725972      20.03532712      16.01496591       0.00000000       0.00000000       0.00000000
Ta      17.76331426       9.15518742       8.63836478       0.00000000       0.00000000       0.00000000
Ta      19.26512037       9.78480963      17.02719429       0.00000000       0.00000000       0.00000000
Ta      15.61961950      16.96249129      10.88467697       0.00000000       0.00000000       0.00000000
Ta      10.10188105      18.27881913       8.91989331       0.00000000       0.00000000       0.00000000
Ta      13.58804504       1.24959047       8.45076956       0.00000000       0.00000000       0.00000000
Ta      18.02362292      11.88557115      14.85064552       0.00000000       0.00000000       0.00000000
Ta      12.21699765      14.48140292      16.88935772       0.00000000       0.00000000       0.00000000
Ta      21.80296809      13.53230643      16.88570446       0.00000000       0.00000000       0.00000000
Ta      14.12274382      11.59844348      17.17312449       0.00000000       0.00000000       0.00000000
Ti      16.62159863       0.88567483      14.48941816       0.00000000       0.00000000       0.00000000
Ti      15.91570570      14.42796781       9.50812033       0.00000000       0.00000000       0.00000000
Ti      21.16819463       4.20943668      11.30748794       0.00000000       0.00000000       0.00000000
Ti      21.57902544       4.70747966      16.26794486       0.00000000       0.00000000       0.00000000
Ti      18.57405188      20.40655917      10.18480822       0.00000000       0.00000000       0.00000000
Ti      13.23232875      18.73372391      12.18744413       0.00000000       0.00000000       0.00000000
Ti      16.07078489       7.59873746      11.51680934       0.00000000       0.00000000       0.00000000
Ti      14.68228839      11.81371603       8.51125297       0.00000000       0.00000000       0.00000000
Ti      12.52380320      10.51334098       9.56689418       0.00000000       0.00000000       0.00000000
Ti      10.86960750      20.08314204      14.20655882       0.00000000       0.00000000       0.00000000
Ti      18.45200870      14.40904417      10.66985870       0.00000000       0.00000000       0.00000000
Ti       9.52737389      13.88437586      11.55932034       0.00000000       0.00000000       0.00000000
Ti      20.37594262      11.90768321      10.15449347       0.00000000       0.00000000       0.00000000
Ti      11.13424242       5.22168624      12.92990330       0.00000000       0.00000000       0.00000000
Ti      22.05370027       2.05548004      13.70375593       0.00000000       0.00000000       0.00000000
Ti      22.46998220      19.51247806       9.83214067       0.00000000       0.00000000       0.00000000
Zr      15.45955381       1.22789581      11.15993844       0.00000000       0.00000000       0.00000000
Zr      18.55254980       2.65955948      15.17583334       0.00000000       0.00000000       0.00000000
Zr      19.63965970       5.07519547      14.07819098       0.00000000       0.00000000       0.00000000
Zr      12.73428611      16.65198892       8.88216700       0.00000000       0.00000000       0.00000000
Zr      16.30542814      10.33618378      12.08408677       0.00000000       0.00000000       0.00000000
Zr      19.57728318      20.73754918      13.07499160       0.00000000       0.00000000       0.00000000
Zr      16.20299440      19.82667612       8.61874786       0.00000000       0.00000000       0.00000000
Zr      19.22462058      10.46132835      12.67767056       0.00000000       0.00000000       0.00000000
Zr      18.93847014       0.35339513       9.61290830       0.00000000       0.00000000       0.00000000
Zr      11.08944663       1.97558983      11.09111970       0.00000000       0.00000000       0.00000000
Zr      17.81318088      16.56174955      15.87557558       0.00000000       0.00000000       0.00000000
Zr      20.89850446      13.87555435      12.97869066       0.00000000       0.00000000       0.00000000
Zr      16.72942316       5.15571562      15.35800900       0.00000000       0.00000000       0.00000000
Zr      17.12137711       8.82380309      14.38808282       0.00000000       0.00000000       0.00000000
Zr      11.43856442       2.96282739      15.04733069       0.00000000       0.00000000       0.00000000
C       17.43426362      22.12647574       6.45230696       0.00000000       0.00000000       0.00000000
C       16.61194508      21.28917114       7.29863580       0.00000000       0.00000000       0.00000000
C       10.63681767      21.13647319       7.11040718       0.00000000       0.00000000       0.00000000
Zr      13.44054309      21.73732775       7.26105387       0.00000000       0.00000000       0.00000000
C       21.89558935      21.50002728      17.34009676       0.00000000       0.00000000       0.00000000
C       15.06023651      22.24082984      15.59819810       0.00000000       0.00000000       0.00000000
C       17.02277805      21.10272002      11.24659855       0.00000000       0.00000000       0.00000000
C       20.50746756      21.89882470      17.05279999       0.00000000       0.00000000       0.00000000
C       21.54589809      21.18676294      10.95209026       0.00000000       0.00000000       0.00000000
Hf      12.58309869      21.91819212      15.18217684       0.00000000       0.00000000       0.00000000
Ta      13.81037946      21.71634006      10.05565269       0.00000000       0.00000000       0.00000000
Ta      22.39552308      21.17459462      13.49119907       0.00000000       0.00000000       0.00000000
Ti      20.45684775      22.61114123      15.31075172       0.00000000       0.00000000       0.00000000
Ti      11.96298915      21.11041341      11.80180632       0.00000000       0.00000000       0.00000000
Zr      14.40524273      21.95471666      12.95586706       0.00000000       0.00000000       0.00000000
858
Lattice="22.90502845 0.0 0.0 0.0 22.90502845 0.0 0.0 0.0 22.90502845" Properties=species:S:1:pos:R:3:momenta:R:3 pbc="T T T"
C       19.99091443       7.48617555       2.86350752       0.00000000       0.00000000       0.00000000
C       11.46315026      16.56397962       0.69789535       0.00000000       0.00000000       0.00000000
C       16.99037656       8.75457361       3.95163046       0.00000000       0.00000000       0.00000000
C       15.16672280      12.91510818       4.44274133       0.00000000       0.00000000       0.00000000
C        2.60505458       1.05013721      18.73378403       0.00000000       0.00000000       0.00000000
C        3.57142143      15.14947627       6.24932261       0.00000000       0.00000000       0.00000000
C        9.25308280      10.55652143       1.95930547       0.00000000       0.00000000       0.00000000
C       17.13109193      12.08420951      18.80218997       0.00000000       0.00000000       0.00000000
C       16.05670406      18.19742321       6.00195537       0.00000000       0.00000000       0.00000000
C        2.88403516       5.35524639       0.33030199       0.00000000       0.00000000       0.00000000
C        8.40823238       0.34285021      18.86187655       0.00000000       0.00000000       0.00000000
C       11.36838455       6.41494328       1.51453877       0.00000000       0.00000000       0.00000000
C        3.64576634      16.35692506      19.18692444       0.00000000       0.00000000       0.00000000
C       19.91749163      10.87731157      17.53796898       0.00000000       0.00000000       0.00000000
C        4.73594219      19.29158546      18.51482427       0.00000000       0.00000000       0.00000000
C        8.52453794      15.41469839      22.43995826       0.00000000       0.00000000       0.00000000
C       20.52488270       5.74761909      20.45507737       0.00000000       0.00000000       0.00000000
C        8.36369189       7.62884434       2.52385023       0.00000000       0.00000000       0.00000000
C        8.38938330       3.68486869      20.90537226       0.00000000       0.00000000       0.00000000
C        1.62186842      17.29954424       4.55477848       0.00000000       0.00000000       0.00000000
C       22.70390860      21.80386723       4.85310548       0.00000000       0.00000000       0.00000000
C       10.22477638      11.33893417      21.99111898       0.00000000       0.00000000       0.00000000
C        0.74986176      19.86080189      22.54548249       0.00000000       0.00000000       0.00000000
C       19.89564519       9.65960267       5.12173290       0.00000000       0.00000000       0.00000000
C       11.35483102      14.27093658      21.31701322       0.00000000       0.00000000       0.00000000
C        3.62895801      18.56467707      21.55064873       0.00000000       0.00000000       0.00000000
C        4.59907625      11.31322410      21.91794288       0.00000000       0.00000000       0.00000000
C       17.04828884      22.26537823      17.76757929       0.00000000       0.00000000       0.00000000
C       14.07652689      20.12025695       4.07387790       0.00000000       0.00000000       0.00000000
C       21.62132592      18.31918099       5.90534094       0.00000000       0.00000000       0.00000000
C       16.96633228      10.91550134       6.29912256       0.00000000       0.00000000       0.00000000
C       13.29576412      22.70535788      21.93612015       0.00000000       0.00000000       0.00000000
C       22.58453384      19.52239201       2.63055513       0.00000000       0.00000000       0.00000000
C       14.17232573      13.33580095      20.18300188       0.00000000       0.00000000       0.00000000
C        2.69978168       3.31114767      20.99578656       0.00000000       0.00000000       0.00000000
C        8.44219341      22.34425831       6.13225803       0.00000000       0.00000000       0.00000000
C        3.58555694      12.83335509       4.18189330       0.00000000       0.00000000       0.00000000
C       16.19523186      13.56747496       1.34605098       0.00000000       0.00000000       0.00000000
C        6.80482391       1.34449610       4.26614956       0.00000000       0.00000000       0.00000000
C        1.77180446       6.73596249       5.79221549       0.00000000       0.00000000       0.00000000
C       13.30345419      12.47835097       0.22107473       0.00000000       0.00000000       0.00000000
C        7.54132770      16.82376223       4.77362192       0.00000000       0.00000000       0.00000000
C        3.72928363       8.25033970      22.49143787       0.00000000       0.00000000       0.00000000
C        9.20598859       8.34547810      22.57312080       0.00000000       0.00000000       0.00000000
C       11.48761215       1.25169482      19.97776978       0.00000000       0.00000000       0.00000000
C        6.52442705       5.02994090      19.06038177       0.00000000       0.00000000       0.00000000
C       11.27864275      12.19944927      19.01955435       0.00000000       0.00000000       0.00000000
C       16.04336497       0.97592458       0.26576141       0.00000000       0.00000000       0.00000000
C        4.71776280       1.22174449       0.06991577       0.00000000       0.00000000       0.00000000
C       22.00456558       1.05322743       0.09184330       0.00000000       0.00000000       0.00000000
C       18.75983735      20.38917273      19.51163941       0.00000000       0.00000000       0.00000000
C       12.24232392      17.26574206      20.45352638       0.00000000       0.00000000       0.00000000
C        0.02290726       8.63519843       3.75868847       0.00000000       0.00000000       0.00000000
C        6.56189864       7.39647796      21.24092649       0.00000000       0.00000000       0.00000000
C       15.23856364      20.67735924       0.93249987       0.00000000       0.00000000       0.00000000
C        5.13236982       3.60617958       3.18758578       0.00000000       0.00000000       0.00000000
C        8.22321963      13.03482950      20.05234064       0.00000000       0.00000000       0.00000000
C       20.94293913       0.47241290       3.11056296       0.00000000       0.00000000       0.00000000
C        0.18089761      12.01536067      18.82566266       0.00000000       0.00000000       0.00000000
C        0.84468461       4.90932191      19.21122368       0.00000000       0.00000000       0.00000000
C       11.41485272      21.21239396       5.16976831       0.00000000       0.00000000       0.00000000
C       19.15639047       6.81439221       5.82386787       0.00000000       0.00000000       0.00000000
C        5.46213115      19.12950805       2.75502960       0.00000000       0.00000000       0.00000000
C        4.48861538       5.98066503       4.58566985       0.00000000       0.00000000       0.00000000
C       15.08890253      18.37418571      21.64969251       0.00000000       0.00000000       0.00000000
C       18.28966361      11.70193006       3.24019781       0.00000000       0.00000000       0.00000000
C        7.38090626      12.37008379       0.20488420       0.00000000       0.00000000       0.00000000
C       14.17326432       2.88636831      21.22360866       0.00000000       0.00000000       0.00000000
C        7.31431545       6.77588680       5.72271815       0.00000000       0.00000000       0.00000000
C        5.63530150      12.16877965      18.85945602       0.00000000       0.00000000       0.00000000
C        6.61875962      15.17925668      18.20012402       0.00000000       0.00000000       0.00000000
C       20.85604040      12.98308516       4.31281854       0.00000000       0.00000000       0.00000000
C       10.35504228       3.18280180       2.33234901       0.00000000       0.00000000       0.00000000
C       19.47092735      10.42613181      20.31390509       0.00000000       0.00000000       0.00000000
C       12.19403402       7.32349634      21.53561612       0.00000000       0.00000000       0.00000000
C        3.68571886       2.84175759       5.54957569       0.00000000       0.00000000       0.00000000
C        0.05172649       6.43883092       1.48171989       0.00000000       0.00000000       0.00000000
C        6.43802788      22.02172711       2.04887716       0.00000000       0.00000000       0.00000000
C       16.15133902      15.78771652       3.70882099       0.00000000       0.00000000       0.00000000
C       19.90859577       2.85568121      21.35147526       0.00000000       0.00000000       0.00000000
C       19.76129387      15.58270769      22.14423217       0.00000000       0.00000000       0.00000000
C        9.35317310       6.19301306      20.19093347       0.00000000       0.00000000       0.00000000
C       17.97358235       6.51988867      21.75681640       0.00000000       0.00000000       0.00000000
C       13.36063634      14.67835012       2.75097361       0.00000000       0.00000000       0.00000000
C       13.11075401       8.08828676      18.54930920       0.00000000       0.00000000       0.00000000
C       16.14029207       5.64182297       4.73876153       0.00000000       0.00000000       0.00000000
C       18.10841492      17.44216280      20.15981702       0.00000000       0.00000000       0.00000000
C       19.14744075      12.42317008       0.06647133       0.00000000       0.00000000       0.00000000
C        0.86687320      11.93768831       3.06883401       0.00000000       0.00000000       0.00000000
C       14.99024180       3.61888881      18.37642108       0.00000000       0.00000000       0.00000000
C       18.96647626      22.85307658      21.93610847       0.00000000       0.00000000       0.00000000
C        2.62232749      15.60443219      22.30974560       0.00000000       0.00000000       0.00000000
C        2.85027922       7.68511578       2.62572683       0.00000000       0.00000000       0.00000000
C        2.66858682      20.37588894       3.78166774       0.00000000       0.00000000       0.00000000
C       20.83053970      18.72675916      21.22734945       0.00000000       0.00000000       0.00000000
C        2.00769097      10.15768655      20.79633739       0.00000000       0.00000000       0.00000000
C        7.58755432       8.07270130      18.35253430       0.00000000       0.00000000       0.00000000
C       12.11859161      15.17972756      18.15610366       0.00000000       0.00000000       0.00000000
C       13.25900610      20.44084319      19.70702900       0.00000000       0.00000000       0.00000000
C       14.08832606      22.52850909       6.31934477       0.00000000       0.00000000       0.00000000
C       16.04287446      19.32154874      18.34567730       0.00000000       0.00000000       0.00000000
C        1.09028200       1.81323120       4.32934158       0.00000000       0.00000000       0.00000000
C       19.99850345       0.55551434      19.01662354       0.00000000       0.00000000       0.00000000
C       10.43463031      19.21852028      18.44473361       0.00000000       0.00000000       0.00000000
C       18.41391625      10.02450050      20.86293766       0.00000000       0.00000000       0.00000000
C       13.91999239       5.04073378       0.59549293       0.00000000       0.00000000       0.00000000
C       18.77906869      17.24752113       4.72093709       0.00000000       0.00000000       0.00000000
C       17.12508392      18.97893874       2.84559589       0.00000000       0.00000000       0.00000000
C       12.43720378      13.85970775       5.75155751       0.00000000       0.00000000       0.00000000
C        5.67720314      14.32499333      21.21195103       0.00000000       0.00000000       0.00000000
C        6.30836451       9.41137930       0.84492821       0.00000000       0.00000000       0.00000000
C       22.84722523       1.60740663      20.08219639       0.00000000       0.00000000       0.00000000
C       15.01403161       6.19983058      20.51803702       0.00000000       0.00000000       0.00000000
C       18.24758247       9.53566841       0.95361362       0.00000000       0.00000000       0.00000000
C       16.01661897       3.27467922       2.46418516       0.00000000       0.00000000       0.00000000
C       17.81100767       1.37147443       4.52579418       0.00000000       0.00000000       0.00000000
C        8.39408436      11.07656542      17.56075304       0.00000000       0.00000000       0.00000000
C       17.98303245      19.67956568      22.72931367       0.00000000       0.00000000       0.00000000
C       12.25953859       4.88773688      19.28106721       0.00000000       0.00000000       0.00000000
C       12.31646096      11.65724428       3.15402928       0.00000000       0.00000000       0.00000000
C       14.86491235       8.37576521      22.70906705       0.00000000       0.00000000       0.00000000
C        0.80327527      14.09390050       5.39011828       0.00000000       0.00000000       0.00000000
C        8.59675302      17.70406780       1.78956821       0.00000000       0.00000000       0.00000000
C       20.87344928      16.28998804      19.09259031       0.00000000       0.00000000       0.00000000
C       17.09208393      16.63781697       0.37751647       0.00000000       0.00000000       0.00000000
C       12.92570260      10.21926990      21.09912093       0.00000000       0.00000000       0.00000000
C        2.00520349       4.62002591       3.66619243       0.00000000       0.00000000       0.00000000
C        0.62737969       7.03803577      21.57171868       0.00000000       0.00000000       0.00000000
C        5.62269585      21.37538794       4.83296093       0.00000000       0.00000000       0.00000000
C       21.82532077      13.71948471       1.41568835       0.00000000       0.00000000       0.00000000
C        1.82903216       2.31781835       1.26950326       0.00000000       0.00000000       0.00000000
C       17.97883099      15.03971130      17.83507492       0.00000000       0.00000000       0.00000000
C        2.55684593      18.04961520       1.58197146       0.00000000       0.00000000       0.00000000
C        1.87430276      22.87087507      21.83787941       0.00000000       0.00000000       0.00000000
C       13.14403193       4.38028464       3.59119284       0.00000000       0.00000000       0.00000000
C       13.45688797      16.96685612       4.96567389       0.00000000       0.00000000       0.00000000
C       17.43983923       7.69755289      21.82242568       0.00000000       0.00000000       0.00000000
C        7.54539885      14.69794303       2.65532771       0.00000000       0.00000000       0.00000000
C       14.08021055       9.61352921       5.09190692       0.00000000       0.00000000       0.00000000
C        4.75150002       9.20101070      19.49771314       0.00000000       0.00000000       0.00000000
C       19.92348408       5.17338655       0.81189725       0.00000000       0.00000000       0.00000000
C        2.94249087      13.27359193      20.00752310       0.00000000       0.00000000       0.00000000
C       15.12391112       0.16307204       3.40626075       0.00000000       0.00000000       0.00000000
C       14.50628605      17.68343957       1.83400105       0.00000000       0.00000000       0.00000000
C       10.50388685      18.16938090       6.01163685       0.00000000       0.00000000       0.00000000
C        7.68045115      22.71975265      21.80576760       0.00000000       0.00000000       0.00000000
C        2.84031248       9.92058819       5.05442054       0.00000000       0.00000000       0.00000000
C        7.58668249       2.30444365       1.23672479       0.00000000       0.00000000       0.00000000
C       10.63451928       2.30527744      20.35550796       0.00000000       0.00000000       0.00000000
C       11.30525635       4.33350179      22.21602263       0.00000000       0.00000000       0.00000000
C       16.96566628       3.93087823      22.40350829       0.00000000       0.00000000       0.00000000
C       11.23124494      18.67783605       3.07586930       0.00000000       0.00000000       0.00000000
C       18.93628731       2.17637003       1.36665834       0.00000000       0.00000000       0.00000000
C        4.63111741      13.52597296       1.33765856       0.00000000       0.00000000       0.00000000
C       21.66586888      16.17392051       3.54173977       0.00000000       0.00000000       0.00000000
C       11.31487374      22.25968427      17.69296740       0.00000000       0.00000000       0.00000000
C       13.07050778       6.61207034       5.77128795       0.00000000       0.00000000       0.00000000
C        5.67454679       1.93089839      19.73159268       0.00000000       0.00000000       0.00000000
C        9.54031206      18.37934573      21.58206815       0.00000000       0.00000000       0.00000000
C        0.62972860      17.38086539      20.31292413       0.00000000       0.00000000       0.00000000
C       21.79557960       3.32812516       2.61487293       0.00000000       0.00000000       0.00000000
C        5.87421474      21.72018484      17.72726505       0.00000000       0.00000000       0.00000000
C        9.04441975       2.45310697      20.69217881       0.00000000       0.00000000       0.00000000
C       12.31951447       1.25707167       4.37910413       0.00000000       0.00000000       0.00000000
C       12.44003308      19.62328730      22.87208482       0.00000000       0.00000000       0.00000000
C        5.70584999      10.93444260       6.32530284       0.00000000       0.00000000       0.00000000
C       14.46248460      15.39492150      22.43224616       0.00000000       0.00000000       0.00000000
C        1.85983820       7.83507446      18.36373558       0.00000000       0.00000000       0.00000000
C       22.76263455       3.98140392      22.41169693       0.00000000       0.00000000       0.00000000
C        9.43057121       2.50522095       5.37989108       0.00000000       0.00000000       0.00000000
C       19.77389054      17.99359407       1.72400038       0.00000000       0.00000000       0.00000000
C       10.33601333       9.06982100      19.51608592       0.00000000       0.00000000       0.00000000
C       10.99501475      10.82835897       6.04978878       0.00000000       0.00000000       0.00000000
C       14.26921982      11.37799195      18.32093863       0.00000000       0.00000000       0.00000000
C       14.28089150       0.55210037      18.83553757       0.00000000       0.00000000       0.00000000
C       10.48659958       0.77668984       0.19842378       0.00000000       0.00000000       0.00000000
C        4.57187442      15.96399153       3.47425896       0.00000000       0.00000000       0.00000000
C        0.85739228      15.14537027      18.13305179       0.00000000       0.00000000       0.00000000
C       15.98602805      11.47431054      21.99614949       0.00000000       0.00000000       0.00000000
C        8.17457433       9.77372333       4.99510614       0.00000000       0.00000000       0.00000000
C        9.38743909      12.75722249       4.31675823       0.00000000       0.00000000       0.00000000
C        6.49552229      19.63771595      22.56799052       0.00000000       0.00000000       0.00000000
C        5.06892379       4.77361594       4.29082024       0.00000000       0.00000000       0.00000000
C        8.40824609      20.14950250       3.94767839       0.00000000       0.00000000       0.00000000
C       20.96010702      21.02637900       0.74003399       0.00000000       0.00000000       0.00000000
C       11.12913564       8.53199011       3.84569719       0.00000000       0.00000000       0.00000000
C        1.01743619      22.25599962       1.90333401       0.00000000       0.00000000       0.00000000
C       16.99616253       6.22023266       1.72128491       0.00000000       0.00000000       0.00000000
C       17.96686520      21.90492601       2.09385741       0.00000000       0.00000000       0.00000000
C       16.00967649       6.57772639      17.64271979       0.00000000       0.00000000       0.00000000
C       22.61356448      14.64191870      21.11233313       0.00000000       0.00000000       0.00000000
C       17.13994732       1.64529223      20.24412215       0.00000000       0.00000000       0.00000000
C        3.62481600      10.50523864       1.88954122       0.00000000       0.00000000       0.00000000
C       17.11187493      14.39517339      20.98254790       0.00000000       0.00000000       0.00000000
C       15.11240684      10.47107361       2.06168101       0.00000000       0.00000000       0.00000000
C        7.84611311       4.57734480       3.18515191       0.00000000       0.00000000       0.00000000
C       22.80168968      10.89083299       6.08877196       0.00000000       0.00000000       0.00000000
C        5.60643506       4.28759946      22.05398171       0.00000000       0.00000000       0.00000000
C       10.11236563      13.50810900       1.36040410       0.00000000       0.00000000       0.00000000
C       17.03477977      21.39203177       5.29984777       0.00000000       0.00000000       0.00000000
C        9.48363431       0.16408713       3.03127744       0.00000000       0.00000000       0.00000000
C        1.80161971      20.35869702      19.59572649       0.00000000       0.00000000       0.00000000
C       21.90277476      11.29413315      21.79514142       0.00000000       0.00000000       0.00000000
C       21.92321823      21.65195349      20.63222744       0.00000000       0.00000000       0.00000000
C        7.51579052      10.22641749      20.76306126       0.00000000       0.00000000       0.00000000
C        5.64684261       6.44236862       1.46961854       0.00000000       0.00000000       0.00000000
C       20.08541577      13.21700184      19.82869514       0.00000000       0.00000000       0.00000000
C        9.53775364      20.80712870       0.86123923       0.00000000       0.00000000       0.00000000
C       18.77607339      14.78791328       2.37404300       0.00000000       0.00000000       0.00000000
C       16.17959289      21.57909123      20.94836861       0.00000000       0.00000000       0.00000000
C        1.43239385      15.09641147       2.47502926       0.00000000       0.00000000       0.00000000
C        6.79099147      13.94424862       5.50682136       0.00000000       0.00000000       0.00000000
C       17.68101442       4.63964059      19.48348791       0.00000000       0.00000000       0.00000000
C        4.56022365      21.45849711      20.64596682       0.00000000       0.00000000       0.00000000
C       15.75112930       9.38644379      19.63208215       0.00000000       0.00000000       0.00000000
C       10.18353970       5.54843141       4.58605440       0.00000000       0.00000000       0.00000000
C       20.66275406       2.78423831       5.51153710       0.00000000       0.00000000       0.00000000
C        3.75067226       0.44381878       3.08287187       0.00000000       0.00000000       0.00000000
C        5.76614336      16.66842161       0.63724069       0.00000000       0.00000000       0.00000000
C       20.87463945       8.10927952      22.65744336       0.00000000       0.00000000       0.00000000
C       12.39711402      21.92446643       2.20185346       0.00000000       0.00000000       0.00000000
C        1.72939525      12.47401091       0.10044767       0.00000000       0.00000000       0.00000000
C        0.74841145       9.46588974       0.68710696       0.00000000       0.00000000       0.00000000
C        0.00371220      22.38511634      17.72892343       0.00000000       0.00000000       0.00000000
C        5.30215028      22.89210313      17.63299274       0.00000000       0.00000000       0.00000000
C        3.51715217      20.91146250       0.82235218       0.00000000       0.00000000       0.00000000
C       10.41398721      15.76571926       3.64615641       0.00000000       0.00000000       0.00000000
C        9.37299497      16.14350664      19.30677195       0.00000000       0.00000000       0.00000000
C       21.72579755      19.21605118      18.41121993       0.00000000       0.00000000       0.00000000
C        5.46666967       8.72949081       3.75665585       0.00000000       0.00000000       0.00000000
C       17.97941636      14.13389810       5.64162326       0.00000000       0.00000000       0.00000000
C       20.88848056       3.35346998      18.01063833       0.00000000       0.00000000       0.00000000
C       15.16792629       2.46299429       5.65918741       0.00000000       0.00000000       0.00000000
C       12.10704343       9.55072973       1.03912694       0.00000000       0.00000000       0.00000000
C        3.79421224       6.00652084      20.30225607       0.00000000       0.00000000       0.00000000
C        2.59900075       0.02401082       6.17089648       0.00000000       0.00000000       0.00000000
C        3.87964969       4.04395665      17.93330796       0.00000000       0.00000000       0.00000000
C        6.54324661      17.35970330      20.38643063       0.00000000       0.00000000       0.00000000
C        7.66880423      20.34426719      19.63701825       0.00000000       0.00000000       0.00000000
C        9.46052653       3.83494477      17.99026073       0.00000000       0.00000000       0.00000000
C       13.27320582       1.96736232       1.24938376       0.00000000       0.00000000       0.00000000
C       19.88849772      20.23593228       4.16093873       0.00000000       0.00000000       0.00000000
C       21.85048048       5.77111984       4.49963044       0.00000000       0.00000000       0.00000000
C        8.39289618       5.36430351       0.19186889       0.00000000       0.00000000       0.00000000
C        6.44972473      11.77433815       3.05666009       0.00000000       0.00000000       0.00000000
C        4.71213916      18.04578826       5.54067918       0.00000000       0.00000000       0.00000000
C       21.79567886       8.92105769      19.61010476       0.00000000       0.00000000       0.00000000
C        4.55439873       3.54785639       1.99353171       0.00000000       0.00000000       0.00000000
C       18.44092863       7.74435304      18.56518885       0.00000000       0.00000000       0.00000000
C       18.67618459       4.44257689       3.81272473       0.00000000       0.00000000       0.00000000
C       22.59584591      16.84725466       0.44396195       0.00000000       0.00000000       0.00000000
C       14.11554076       7.54057707       2.75305280       0.00000000       0.00000000       0.00000000
C       15.18988399      16.29891382      19.27850485       0.00000000       0.00000000       0.00000000
C       21.04177190      10.80452134       1.93932558       0.00000000       0.00000000       0.00000000
C       10.46270582      21.36429736      20.71915148       0.00000000       0.00000000       0.00000000
C        2.95863696      11.00243206      17.68785432       0.00000000       0.00000000       0.00000000
Hf      12.16158643       6.48405882       3.63732390       0.00000000       0.00000000       0.00000000
Hf      18.95911169      15.27639280      19.81005664       0.00000000       0.00000000       0.00000000
Hf       6.37227691       8.79145506       6.19687489       0.00000000       0.00000000       0.00000000
Hf      17.94563142       6.73469245       3.75167632       0.00000000       0.00000000       0.00000000
Hf       1.08796791       6.66969323       3.61924237       0.00000000       0.00000000       0.00000000
Hf       3.71317816      13.43223605      22.16323835       0.00000000       0.00000000       0.00000000
Hf       9.43647549       2.69554457       0.33756773       0.00000000       0.00000000       0.00000000
Hf       2.46974762      13.06539831       2.05668057       0.00000000       0.00000000       0.00000000
Hf       3.39960344       1.27429978      20.97040391       0.00000000       0.00000000       0.00000000
Hf       6.64265256       6.79165487       3.57086563       0.00000000       0.00000000       0.00000000
Hf      11.30558075       3.25215764       4.60311742       0.00000000       0.00000000       0.00000000
Hf      11.46428464      19.29335555      21.03989522       0.00000000       0.00000000       0.00000000
Hf      17.72021671       9.92717301      18.50831061       0.00000000       0.00000000       0.00000000
Hf      19.63909904      22.81746910       1.16432368       0.00000000       0.00000000       0.00000000
Hf       9.48199302       5.57408051       2.14334632       0.00000000       0.00000000       0.00000000
Hf       4.01850258      20.05603276       5.48141823       0.00000000       0.00000000       0.00000000
Hf      14.97408671       5.35745613       2.54254692       0.00000000       0.00000000       0.00000000
Hf      10.47136944      16.24150142      21.34837788       0.00000000       0.00000000       0.00000000
Hf      12.67377900      16.77915878       2.84874364       0.00000000       0.00000000       0.00000000
Hf      21.58741975       0.83263483       5.70734420       0.00000000       0.00000000       0.00000000
Hf       5.62391152       7.24138360      19.24864755       0.00000000       0.00000000       0.00000000
Hf      14.07846372       4.67014556       5.64382130       0.00000000       0.00000000       0.00000000
Hf      20.66607001       8.81563095      17.55834230       0.00000000       0.00000000       0.00000000
Hf      20.42848670      20.94656401      18.35335202       0.00000000       0.00000000       0.00000000
Hf      15.80261532      10.70283163       4.15904967       0.00000000       0.00000000       0.00000000
Hf      15.24087478      18.29122681       3.94446821       0.00000000       0.00000000       0.00000000
Hf       0.61185145      19.87139178       4.55730797       0.00000000       0.00000000       0.00000000
Hf       1.27408253       9.83793322      18.71949125       0.00000000       0.00000000       0.00000000
Hf      16.97930523       1.12898970       2.50186838       0.00000000       0.00000000       0.00000000
Hf      10.44939256      18.66194717       0.84506601       0.00000000       0.00000000       0.00000000
Hf       3.70586295      16.10023506       1.31107194       0.00000000       0.00000000       0.00000000
Hf      12.26251741       1.74317996      22.11694065       0.00000000       0.00000000       0.00000000
Hf      12.10354292      22.15429973      19.71071964       0.00000000       0.00000000       0.00000000
Hf       0.53754498      14.84411749       0.38954319       0.00000000       0.00000000       0.00000000
Hf      12.15086182      10.17863202      18.99177506       0.00000000       0.00000000       0.00000000
Hf      11.61313545      16.00012153       5.71580752       0.00000000       0.00000000       0.00000000
Hf       5.54179864      17.25111082      18.27797987       0.00000000       0.00000000       0.00000000
Hf      18.36554696      12.44995520      20.74939400       0.00000000       0.00000000       0.00000000
Hf      13.10887742       9.42867600       3.04917732       0.00000000       0.00000000       0.00000000
Hf      18.90304240      17.74686605      22.21078924       0.00000000       0.00000000       0.00000000
Hf       7.55365010      20.03143265       1.72623599       0.00000000       0.00000000       0.00000000
Hf      22.06354030       8.33075195       1.83741623       0.00000000       0.00000000       0.00000000
Hf       0.87600068      22.47504038      19.93671759       0.00000000       0.00000000       0.00000000
Hf      16.24751116       8.63470791       1.73814128       0.00000000       0.00000000       0.00000000
Hf      15.79920318       5.89481637      22.60041895       0.00000000       0.00000000       0.00000000
Hf       7.56468867      17.52759988      22.44985936       0.00000000       0.00000000       0.00000000
Hf      17.98411068      19.35915552       5.25535101       0.00000000       0.00000000       0.00000000
Hf       9.99615246      10.59947349       4.11498301       0.00000000       0.00000000       0.00000000
Hf       4.56456689       4.01207845      20.08690730       0.00000000       0.00000000       0.00000000
Hf      15.26671262      21.28180598      18.81393134       0.00000000       0.00000000       0.00000000
Hf      19.99126042      10.25776639      22.65854441       0.00000000       0.00000000       0.00000000
Hf       0.39323106      17.21350961       2.56548326       0.00000000       0.00000000       0.00000000
Hf       4.80680373      16.59301672      21.43602796       0.00000000       0.00000000       0.00000000
Hf      10.46535144      20.89458772       2.95855279       0.00000000       0.00000000       0.00000000
Hf      11.58036422      13.58917355       3.79844394       0.00000000       0.00000000       0.00000000
Hf      22.84732204       7.03677540      19.41369288       0.00000000       0.00000000       0.00000000
Hf       6.67573540       4.30449772       1.35733879       0.00000000       0.00000000       0.00000000
Hf      14.38254645      20.53846588      21.80894214       0.00000000       0.00000000       0.00000000
Hf      20.75464376       3.20782633       0.70865413       0.00000000       0.00000000       0.00000000
Hf      20.42276842       5.09568061       2.98881657       0.00000000       0.00000000       0.00000000
Hf      17.62339047      11.55675442       1.31090963       0.00000000       0.00000000       0.00000000
Nb       5.48301659      19.45488350      20.67799498       0.00000000       0.00000000       0.00000000
Nb       4.00136033      11.16426759      19.82352127       0.00000000       0.00000000       0.00000000
Nb       2.99422716       2.48512296       3.54925283       0.00000000       0.00000000       0.00000000
Nb      16.95499240       3.60623976       4.60614518       0.00000000       0.00000000       0.00000000
Nb      19.22385630       5.69829986      18.61108176       0.00000000       0.00000000       0.00000000
Nb      15.16367759       2.96231692       0.47246271       0.00000000       0.00000000       0.00000000
Nb       0.87820413       2.11159002      21.89245493       0.00000000       0.00000000       0.00000000
Nb      15.27687004       7.81191308       4.61020202       0.00000000       0.00000000       0.00000000
Nb      19.06908646       7.19237358       0.87637203       0.00000000       0.00000000       0.00000000
Nb      19.06121583       4.80080400      21.81228248       0.00000000       0.00000000       0.00000000
Nb      22.76365821       9.07007860      21.59101329       0.00000000       0.00000000       0.00000000
Nb      16.59052127       9.62457132      21.57574742       0.00000000       0.00000000       0.00000000
Nb      16.17344543      14.16522254      18.87473115       0.00000000       0.00000000       0.00000000
Nb      21.64448108      16.53297939      21.07566904       0.00000000       0.00000000       0.00000000
Nb       1.58340221      20.10258899       1.53504533       0.00000000       0.00000000       0.00000000
Nb       7.58393384      22.12515289       3.92783995       0.00000000       0.00000000       0.00000000
Nb      12.26607568       3.99865320       1.17281829       0.00000000       0.00000000       0.00000000
Nb      13.43832598      19.91255855       1.92658784       0.00000000       0.00000000       0.00000000
Nb       6.67004511      18.99306736       4.60987947       0.00000000       0.00000000       0.00000000
Nb       4.73795272      18.78408064       0.47721727       0.00000000       0.00000000       0.00000000
Nb      22.47071402      16.22627993       5.40538737       0.00000000       0.00000000       0.00000000
Nb       9.55389388      17.76238828       3.98065237       0.00000000       0.00000000       0.00000000
Nb       3.80888538       3.26920498       0.20482966       0.00000000       0.00000000       0.00000000
Nb      18.11393686       8.63801780       6.22411780       0.00000000       0.00000000       0.00000000
Nb      22.60049980      19.52438840      20.35149921       0.00000000       0.00000000       0.00000000
Nb       8.38743303       6.05406846      18.12038349       0.00000000       0.00000000       0.00000000
Nb      17.89220980      16.85934355       2.51411113       0.00000000       0.00000000       0.00000000
Nb       9.42791195      20.19804993       5.99579097       0.00000000       0.00000000       0.00000000
Nb      19.26183398      12.98787973      17.71650890       0.00000000       0.00000000       0.00000000
Nb      20.62958293      18.28977463       3.91709597       0.00000000       0.00000000       0.00000000
Nb       8.63784557      14.81929363       4.38473205       0.00000000       0.00000000       0.00000000
Nb       1.67167897      15.50365904      20.35492182       0.00000000       0.00000000       0.00000000
Nb      17.83565212       4.24932130       1.60976682       0.00000000       0.00000000       0.00000000
Nb      22.82869987      22.06406272      22.54649941       0.00000000       0.00000000       0.00000000
Nb      14.10978090      10.43513265       0.25796734       0.00000000       0.00000000       0.00000000
Nb       3.76356284      21.31594251      18.71861104       0.00000000       0.00000000       0.00000000
Nb      18.87237730      19.81376998       1.98695108       0.00000000       0.00000000       0.00000000
Nb       4.75931019      13.16963116       6.35965003       0.00000000       0.00000000       0.00000000
Nb      19.63245673       4.59508367       5.90976700       0.00000000       0.00000000       0.00000000
Nb      21.62132610       5.91004262      22.45958295       0.00000000       0.00000000       0.00000000
Nb      10.43220225       0.26875332       5.15671787       0.00000000       0.00000000       0.00000000
Nb      12.03138205       8.50395358       5.79862249       0.00000000       0.00000000       0.00000000
Nb      13.16427346      22.07521370       4.24188936       0.00000000       0.00000000       0.00000000
Nb       8.43393762       8.11702404      20.36475797       0.00000000       0.00000000       0.00000000
Nb       5.40938223       9.15958439      21.55973911       0.00000000       0.00000000       0.00000000
Nb      11.51297197       0.96273412       2.38692415       0.00000000       0.00000000       0.00000000
Nb      19.54596230       2.47352091       3.53224413       0.00000000       0.00000000       0.00000000
Nb       3.49629398      18.22284799       3.50308994       0.00000000       0.00000000       0.00000000
Nb       5.34874641      11.46760857       0.93462080       0.00000000       0.00000000       0.00000000
Nb       7.20003458       5.36767904      20.96575638       0.00000000       0.00000000       0.00000000
Nb      20.11405492      20.99024602      21.57094150       0.00000000       0.00000000       0.00000000
Nb      13.10044755       7.38044329       0.83050466       0.00000000       0.00000000       0.00000000
Ta       2.61100012      15.45433236       4.20243572       0.00000000       0.00000000       0.00000000
Ta      16.56260111       1.21905501      18.25633949       0.00000000       0.00000000       0.00000000
Ta       9.57464693      15.67336142       1.56897348       0.00000000       0.00000000       0.00000000
Ta      20.81546336       0.81741072      20.90544821       0.00000000       0.00000000       0.00000000
Ta      20.79786488      20.57114067       6.06684232       0.00000000       0.00000000       0.00000000
Ta       9.46378924      21.10578128      18.56694026       0.00000000       0.00000000       0.00000000
Ta      13.61822851      17.21946772      22.78878794       0.00000000       0.00000000       0.00000000
Ta      12.04579615      12.38126953      21.20393230       0.00000000       0.00000000       0.00000000
Ta      22.66758713      13.87425958       3.51528265       0.00000000       0.00000000       0.00000000
Ta      13.12552511      13.21336415      18.26377177       0.00000000       0.00000000       0.00000000
Ta       4.41990840      21.42116564       2.81162391       0.00000000       0.00000000       0.00000000
Ta      17.03994109      16.09469172       5.47778640       0.00000000       0.00000000       0.00000000
Ta      19.68750074      18.25910589      18.98681172       0.00000000       0.00000000       0.00000000
Ta      10.21575456       8.54928966       1.73200564       0.00000000       0.00000000       0.00000000
Ta       7.54135159      13.22745038      17.94194624       0.00000000       0.00000000       0.00000000
Ta       8.31628603      12.53279124       2.20630190       0.00000000       0.00000000       0.00000000
Ta      16.98456333      21.54423842       0.20023646       0.00000000       0.00000000       0.00000000
Ta       7.76499651      12.10313931       5.61430738       0.00000000       0.00000000       0.00000000
Ta      18.13804203       1.98710401      22.19032697       0.00000000       0.00000000       0.00000000
Ta       8.22156215       4.79833989       5.16645277       0.00000000       0.00000000       0.00000000
Ta      18.18075094      22.29790730      20.09964807       0.00000000       0.00000000       0.00000000
Ta       7.38299604       7.42977620       0.39387465       0.00000000       0.00000000       0.00000000
Ta       2.99183983       6.07378178      17.85826477       0.00000000       0.00000000       0.00000000
Ta       4.71088581       1.96206695      17.76065891       0.00000000       0.00000000       0.00000000
Ta      11.68545922      21.68108455       0.20928913       0.00000000       0.00000000       0.00000000
Ta      10.98448143      11.57376665       1.01174239       0.00000000       0.00000000       0.00000000
Ta      14.75062860       9.30907403      17.75852088       0.00000000       0.00000000       0.00000000
Ta       2.16690085       3.26754030      18.80816667       0.00000000       0.00000000       0.00000000
Ta      14.95110481       0.78022924      20.88923446       0.00000000       0.00000000       0.00000000
Ta       7.73469149       1.43112904       6.15056217       0.00000000       0.00000000       0.00000000
Ta      20.14087585      12.66999745       2.40166326       0.00000000       0.00000000       0.00000000
Ta      17.93265074      14.69405592       0.07902599       0.00000000       0.00000000       0.00000000
Ta       8.09266907      10.10482856      22.87141196       0.00000000       0.00000000       0.00000000
Ta      19.52083615       9.75275898       3.15653401       0.00000000       0.00000000       0.00000000
Ta       1.27243455      17.89032060      22.39625247       0.00000000       0.00000000       0.00000000
Ta       2.44300273      18.22701500      19.51540763       0.00000000       0.00000000       0.00000000
Ta       7.53356662      15.05748705      20.28017366       0.00000000       0.00000000       0.00000000
Ta      14.25108916      12.78402296       2.19843641       0.00000000       0.00000000       0.00000000
Ta       3.62495805       7.92657308       4.59636638       0.00000000       0.00000000       0.00000000
Ta      22.02488216       1.45495547      18.00761107       0.00000000       0.00000000       0.00000000
Ta       4.68807972      14.30178519      19.02921146       0.00000000       0.00000000       0.00000000
Ta      13.98490690       8.22598933      20.66604799       0.00000000       0.00000000       0.00000000
Ta      22.16703858      21.67281267       2.40544308       0.00000000       0.00000000       0.00000000
Ta       5.26843678      13.51288285       3.26606230       0.00000000       0.00000000       0.00000000
Ta      11.40273018      17.26036280      18.33310340       0.00000000       0.00000000       0.00000000
Ta       0.90193911      11.77238348      21.21662755       0.00000000       0.00000000       0.00000000
Ta      14.43930566      14.91364281       4.73214058       0.00000000       0.00000000       0.00000000
Ta      13.13911582       2.99327737      19.04264082       0.00000000       0.00000000       0.00000000
Ta       7.27827373       9.62201112       2.95155847       0.00000000       0.00000000       0.00000000
Ta      16.18460702       3.55767653      20.33978536       0.00000000       0.00000000       0.00000000
Ta       6.65928449      10.02844413      18.35856572       0.00000000       0.00000000       0.00000000
Ta      22.59105776       5.98137126       6.38766246       0.00000000       0.00000000       0.00000000
Ta      16.22845456      16.32322467      21.17196823       0.00000000       0.00000000       0.00000000
Ta       0.07948029       1.50466877       2.20184736       0.00000000       0.00000000       0.00000000
Ta      14.29177124      22.89099111       1.34471747       0.00000000       0.00000000       0.00000000
Ta       9.43488882       0.33912440      20.83407584       0.00000000       0.00000000       0.00000000
Ta       2.70169932      20.46946459      21.72292758       0.00000000       0.00000000       0.00000000
Ta       1.53686970       4.91707449      21.42204992       0.00000000       0.00000000       0.00000000
Ta      11.28024461       9.21988273      21.98465781       0.00000000       0.00000000       0.00000000
Ta      11.40000381       6.92268509      19.12855659       0.00000000       0.00000000       0.00000000
Ta       6.41380864      12.13864021      21.19513258       0.00000000       0.00000000       0.00000000
Ti       1.74012604      22.80966408       4.01476058       0.00000000       0.00000000       0.00000000
Ti      16.06719400       0.39271061       5.42950916       0.00000000       0.00000000       0.00000000
Ti      16.70269157       6.84375369      19.71220429       0.00000000       0.00000000       0.00000000
Ti       2.63012888       4.87723324       5.61376838       0.00000000       0.00000000       0.00000000
Ti       0.60372745      18.98296092       5.35544887       0.00000000       0.00000000       0.00000000
Ti       4.74569336       6.22094576      22.35335793       0.00000000       0.00000000       0.00000000
Ti      21.20855124      21.76043229      18.76201988       0.00000000       0.00000000       0.00000000
Ti       6.53772947      16.79752069       2.74401637       0.00000000       0.00000000       0.00000000
Ti       8.65362874      22.78438246       0.86310493       0.00000000       0.00000000       0.00000000
Ti       9.51305942       3.61739764      22.47882709       0.00000000       0.00000000       0.00000000
Ti      15.55083776      15.56882511       1.69834088       0.00000000       0.00000000       0.00000000
Ti       5.72029703       3.05437736       4.97785556       0.00000000       0.00000000       0.00000000
Ti      22.85074381      11.62679219       1.16478049       0.00000000       0.00000000       0.00000000
Ti       5.80366099      15.82622644       5.57936968       0.00000000       0.00000000       0.00000000
Ti       2.07706788      11.86623290       5.28235502       0.00000000       0.00000000       0.00000000
Ti      21.91462736       6.45415475      18.90605513       0.00000000       0.00000000       0.00000000
Ti      10.25995704       4.31590499      19.92572002       0.00000000       0.00000000       0.00000000
Ti      20.99618605      13.38834859      21.89024882       0.00000000       0.00000000       0.00000000
Ti      17.09891958      13.83785372       3.44337613       0.00000000       0.00000000       0.00000000
Ti       9.41854407      11.22827334      19.93745130       0.00000000       0.00000000       0.00000000
Ti      21.78353233      14.29458099      19.04018890       0.00000000       0.00000000       0.00000000
Ti       8.98850142      13.19766553      22.15962178       0.00000000       0.00000000       0.00000000
Ti       8.69305484       2.49440078       3.12447864       0.00000000       0.00000000       0.00000000
Ti       2.93052043      10.34576942       0.01987729       0.00000000       0.00000000       0.00000000
Ti      22.22323823       1.07423635       4.73622969       0.00000000       0.00000000       0.00000000
Ti       4.65729932       8.32285941       1.50016228       0.00000000       0.00000000       0.00000000
Ti      20.93279269       7.66716123       4.79034765       0.00000000       0.00000000       0.00000000
Ti      15.32634770      11.76812305      19.86601454       0.00000000       0.00000000       0.00000000
Ti       9.16219645       7.63752052       4.76944598       0.00000000       0.00000000       0.00000000
Ti      16.25813168      18.64113315       0.58238258       0.00000000       0.00000000       0.00000000
Ti       3.90528593       5.56852043       2.42183339       0.00000000       0.00000000       0.00000000
Ti      15.29027036      13.57270440      22.25949465       0.00000000       0.00000000       0.00000000
Ti       6.55516011      22.24123131      19.77185847       0.00000000       0.00000000       0.00000000
Ti       6.77047036      20.00230657      17.75198556       0.00000000       0.00000000       0.00000000
Ti       4.01220670       0.56000478      20.26381495       0.00000000       0.00000000       0.00000000
Ti      10.04040295       6.35136729      22.25225506       0.00000000       0.00000000       0.00000000
Zr       0.08744858       3.79684027       4.60229747       0.00000000       0.00000000       0.00000000
Zr       0.89105053      12.91190747      20.74276196       0.00000000       0.00000000       0.00000000
Zr      13.17667537      11.62799071       5.50474530       0.00000000       0.00000000       0.00000000
Zr      13.18616374       5.27016847      21.40079538       0.00000000       0.00000000       0.00000000
Zr       5.67968807       1.50161048       2.20130063       0.00000000       0.00000000       0.00000000
Zr      13.92324361      18.41874786      19.45394170       0.00000000       0.00000000       0.00000000
Zr       0.98743844       4.47542346       1.53382038       0.00000000       0.00000000       0.00000000
Zr      19.96479909      15.20262620       4.66338607       0.00000000       0.00000000       0.00000000
Zr       1.08948835       8.96517482       5.94692220       0.00000000       0.00000000       0.00000000
Zr      12.26347755      14.32460029       0.69084518       0.00000000       0.00000000       0.00000000
Zr      14.06600347       2.35909942       3.46669689       0.00000000       0.00000000       0.00000000
Zr      21.80297064      18.95995371       0.42942153       0.00000000       0.00000000       0.00000000
Zr       2.80481905       8.06744985      20.55146525       0.00000000       0.00000000       0.00000000
Zr       6.59805174      14.39232170       0.66639885       0.00000000       0.00000000       0.00000000
Zr      13.31971080      15.24797278      20.42706568       0.00000000       0.00000000       0.00000000
Zr      15.07171918      20.42266759       6.18164222       0.00000000       0.00000000       0.00000000
Zr      18.94307168      11.99545943       5.35606112       0.00000000       0.00000000       0.00000000
Zr       7.64134890       2.87380570      18.98627193       0.00000000       0.00000000       0.00000000
Zr      16.89758649      17.29786595      17.96225983       0.00000000       0.00000000       0.00000000
Zr      15.84141552      20.97750959       3.26598462       0.00000000       0.00000000       0.00000000
Zr       4.62562644      10.84982718       4.31350762       0.00000000       0.00000000       0.00000000
Zr      12.43146350      19.14836149       5.32176590       0.00000000       0.00000000       0.00000000
Zr       8.48022336      18.15085752      19.47070205       0.00000000       0.00000000       0.00000000
Zr      18.95877513      22.21622227       4.42579646       0.00000000       0.00000000       0.00000000
Zr      21.93218874      10.57739355       4.24126211       0.00000000       0.00000000       0.00000000
Zr       2.64554009       0.19552417       1.03102187       0.00000000       0.00000000       0.00000000
Zr      20.50082822      15.93321626       1.45143180       0.00000000       0.00000000       0.00000000
Zr       5.44260754      21.81448137      22.65071182       0.00000000       0.00000000       0.00000000
Zr       4.54150882       0.63049714       5.26166385       0.00000000       0.00000000       0.00000000
Zr      14.11543901       5.82311816      18.40562035       0.00000000       0.00000000       0.00000000
Zr      21.74165880      12.87472491       6.38055768       0.00000000       0.00000000       0.00000000
Zr       2.18077003      13.09444415      17.80008066       0.00000000       0.00000000       0.00000000
Zr      22.57718760      17.12416657      17.94230041       0.00000000       0.00000000       0.00000000
Zr      21.85450102       3.60090512      20.40339464       0.00000000       0.00000000       0.00000000
Zr      10.42935330       1.62985329      17.86198668       0.00000000       0.00000000       0.00000000
Zr      21.15065295      10.92317689      19.44149219       0.00000000       0.00000000       0.00000000
Zr       1.97195923       7.47633882       0.33065744       0.00000000       0.00000000       0.00000000
Zr      19.59878579       7.95878419      20.47996622       0.00000000       0.00000000       0.00000000
Zr       8.62116973      20.64702970      21.59397910       0.00000000       0.00000000       0.00000000
Zr       6.72521109       2.27440798      21.88066705       0.00000000       0.00000000       0.00000000
Zr      16.85049020      19.19884419      20.56034210       0.00000000       0.00000000       0.00000000
Zr      19.05789739       2.42405879      19.07973687       0.00000000       0.00000000       0.00000000
Zr       9.99565217      14.01473939      19.25843602       0.00000000       0.00000000       0.00000000
Zr       1.65137890       9.82237918       2.75793425       0.00000000       0.00000000       0.00000000
C        2.79422352      12.80470381      13.19142407       0.00000000       0.00000000       0.00000000
C        3.97637477      11.63365502      11.13532144       0.00000000       0.00000000       0.00000000
C        4.50158633      17.19190269      13.78721842       0.00000000       0.00000000       0.00000000
C        4.35627851       8.72081269      15.00132614       0.00000000       0.00000000       0.00000000
C        0.62020024       5.94903358      14.08560581       0.00000000       0.00000000       0.00000000
C        6.79044714      20.78806933       8.49104671       0.00000000       0.00000000       0.00000000
C        2.67940741       8.27251673      12.33023798       0.00000000       0.00000000       0.00000000
C        0.33434350       1.15921682       7.65053761       0.00000000       0.00000000       0.00000000
C        6.13713810      21.17555209      14.84745460       0.00000000       0.00000000       0.00000000
C        4.62562703       1.17969193      15.17170656       0.00000000       0.00000000       0.00000000
C        4.85130178       6.05739431      10.55270555       0.00000000       0.00000000       0.00000000
C        4.15645778       1.81945478      13.95746921       0.00000000       0.00000000       0.00000000
C        4.02330632       8.72990415       7.29886619       0.00000000       0.00000000       0.00000000
C        5.97058893       0.69614894      11.38535894       0.00000000       0.00000000       0.00000000
C        1.59781402      17.03785301      14.79054195       0.00000000       0.00000000       0.00000000
C        3.00544382       9.11320517       8.26526907       0.00000000       0.00000000       0.00000000
C        4.25314964      15.44736751      11.05122777       0.00000000       0.00000000       0.00000000
C        1.87056597      20.02209711      14.17706356       0.00000000       0.00000000       0.00000000
C        3.28121240       0.60052341       9.91297311       0.00000000       0.00000000       0.00000000
C        3.87811565      11.27738917       9.90721942       0.00000000       0.00000000       0.00000000
C        6.63837175       3.89457119       7.36587542       0.00000000       0.00000000       0.00000000
C        1.76418018      16.67262552       8.33710487       0.00000000       0.00000000       0.00000000
C        6.72997371       2.86910151      11.96251914       0.00000000       0.00000000       0.00000000
C        2.14746619      20.60312295      12.81565029       0.00000000       0.00000000       0.00000000
C        0.42257438      13.03648470      15.34909181       0.00000000       0.00000000       0.00000000
C        6.72342782      18.16009289       7.68887602       0.00000000       0.00000000       0.00000000
C        3.66174463       3.79751883      11.62918488       0.00000000       0.00000000       0.00000000
C        4.76017134       3.53040870       8.45914161       0.00000000       0.00000000       0.00000000
C        0.73940076       7.62333180       6.72953626       0.00000000       0.00000000       0.00000000
C        1.08740141      17.02667906      13.32330981       0.00000000       0.00000000       0.00000000
C        5.63941514      17.50176014       8.48623794       0.00000000       0.00000000       0.00000000
C        0.39670015      12.17466012       9.53820663       0.00000000       0.00000000       0.00000000
C        6.56034235       4.43474203      14.34025876       0.00000000       0.00000000       0.00000000
C        0.87397690       6.81645105      10.58809294       0.00000000       0.00000000       0.00000000
C        6.71485719      12.90853177      17.03194062       0.00000000       0.00000000       0.00000000
C        6.24540668      13.89748360      12.64431317       0.00000000       0.00000000       0.00000000
C        4.80807583      15.13610500       9.96454937       0.00000000       0.00000000       0.00000000
C        6.60457651       7.20791203      16.42373493       0.00000000       0.00000000       0.00000000
C        0.33488948      13.74618956      12.20629241       0.00000000       0.00000000       0.00000000
C        1.65198363      15.47450033       8.93783626       0.00000000       0.00000000       0.00000000
C        5.21010217      20.96806161      15.82518628       0.00000000       0.00000000       0.00000000
C        3.30407756      20.92680576      10.11162832       0.00000000       0.00000000       0.00000000
C        0.48210728      10.38964332       6.76304151       0.00000000       0.00000000       0.00000000
C        1.92872413       1.79136067      13.25291875       0.00000000       0.00000000       0.00000000
C        3.47597190      12.39646878      14.39972731       0.00000000       0.00000000       0.00000000
C        3.97374304       5.40636226      14.46752323       0.00000000       0.00000000       0.00000000
C        0.39552013       4.26831053      15.46753444       0.00000000       0.00000000       0.00000000
C        4.29797303      16.16725848      14.81216648       0.00000000       0.00000000       0.00000000
Hf       4.77369778       2.17197495      10.83931118       0.00000000       0.00000000       0.00000000
Hf       0.83060849      15.62925557      16.52800602       0.00000000       0.00000000       0.00000000
Hf       2.80660792       6.61735818       7.49959191       0.00000000       0.00000000       0.00000000
Hf       2.53248196       0.89100070      17.29431557       0.00000000       0.00000000       0.00000000
Hf       2.14871613      17.09289674      10.61405785       0.00000000       0.00000000       0.00000000
Hf       1.87009942       0.11449456      11.16755129       0.00000000       0.00000000       0.00000000
Nb       5.95704645      13.18705876      14.40823283       0.00000000       0.00000000       0.00000000
Nb       0.75389095       8.86281695       8.00883279       0.00000000       0.00000000       0.00000000
Nb       2.82462042       3.76077091      13.40492527       0.00000000       0.00000000       0.00000000
Nb       3.26898680      10.83263928      13.15000634       0.00000000       0.00000000       0.00000000
Nb       5.07682042       7.24323074      13.64673837       0.00000000       0.00000000       0.00000000
Nb       1.73012229       0.10974917       8.30160778       0.00000000       0.00000000       0.00000000
Nb       1.70932341      12.61687668      11.25953885       0.00000000       0.00000000       0.00000000
Nb       3.85301617       8.50589591      16.82600073       0.00000000       0.00000000       0.00000000
Nb       3.66164504      16.02194063      16.77550920       0.00000000       0.00000000       0.00000000
Nb       2.29947040      20.82314988      15.99955065       0.00000000       0.00000000       0.00000000
Nb       3.68900036       4.69549813       9.51895036       0.00000000       0.00000000       0.00000000
Nb       0.86024881       2.88606776       6.43674214       0.00000000       0.00000000       0.00000000
Nb       1.91862404       2.46676251      10.29388080       0.00000000       0.00000000       0.00000000
Nb       0.62151776      18.51606127      16.03198958       0.00000000       0.00000000       0.00000000
Nb       4.58698161       4.45539737       6.52925177       0.00000000       0.00000000       0.00000000
Nb       0.51252196      11.81517967      13.51056537       0.00000000       0.00000000       0.00000000
Nb       0.98829180       9.07895095      17.02703578       0.00000000       0.00000000       0.00000000
Ta       0.71704686       1.86556954      14.53751089       0.00000000       0.00000000       0.00000000
Ta       2.83681070       6.31971418      11.59984008       0.00000000       0.00000000       0.00000000
Ta       4.00442876      15.93756656       8.34046236       0.00000000       0.00000000       0.00000000
Ta       6.35826789      15.86395927      13.76299128       0.00000000       0.00000000       0.00000000
Ta       5.04502491      11.24484471      15.82089325       0.00000000       0.00000000       0.00000000
Ta       1.49957468      19.91201116      10.54876373       0.00000000       0.00000000       0.00000000
Ta       5.16491659      19.71022261      10.66207845       0.00000000       0.00000000       0.00000000
Ta       6.60063534       0.90118044      13.81263252       0.00000000       0.00000000       0.00000000
Ta       4.79666559      21.97345753       9.21066845       0.00000000       0.00000000       0.00000000
Ta       5.97410365      19.16475395      13.13102033       0.00000000       0.00000000       0.00000000
Ti       4.60394716      18.59954985      16.03570211       0.00000000       0.00000000       0.00000000
Ti       4.98797354      19.04490946       7.44194361       0.00000000       0.00000000       0.00000000
Ti       5.84828371       8.39118664       7.63012962       0.00000000       0.00000000       0.00000000
Ti       5.99456957       2.04499649       7.05370219       0.00000000       0.00000000       0.00000000
Ti       1.39319669       3.43576179      17.14329515       0.00000000       0.00000000       0.00000000
Ti       4.93131172       4.88448491      12.72417059       0.00000000       0.00000000       0.00000000
Zr       6.38318177      14.94979298      16.65585922       0.00000000       0.00000000       0.00000000
Zr       5.75514844       5.05616687      15.99987707       0.00000000       0.00000000       0.00000000
Zr       2.41215452       9.21151804      10.43080110       0.00000000       0.00000000       0.00000000
Zr       2.79031300      15.40892982      13.15203968       0.00000000       0.00000000       0.00000000
Zr       6.07142334      11.34694993      12.09633754       0.00000000       0.00000000       0.00000000
Zr       3.06246890      18.54691262      12.60651248       0.00000000       0.00000000       0.00000000
Zr       4.02732782      21.43544711      12.00294817       0.00000000       0.00000000       0.00000000
Zr       1.65196900      11.83606457      16.80407394       0.00000000       0.00000000       0.00000000
Zr       0.11660576       7.62674081      12.53343838       0.00000000       0.00000000       0.00000000
Zr       6.69812003      15.06382402      10.08154393       0.00000000       0.00000000       0.00000000
Zr       0.70640106      22.61050333      13.44821213       0.00000000       0.00000000       0.00000000
Zr       2.45219506       7.43902926      14.42827938       0.00000000       0.00000000       0.00000000
Zr       0.04573481      18.08372109       7.57566222       0.00000000       0.00000000       0.00000000
Zr       2.09267286      11.87784815       8.19279795       0.00000000       0.00000000       0.00000000
Zr       5.08923050      13.21137088       8.30120126       0.00000000       0.00000000       0.00000000
C       17.48264032      10.50962720      10.79505852       0.00000000       0.00000000       0.00000000
C       12.80338926      18.70490558      15.56587890       0.00000000       0.00000000       0.00000000
C       22.09432827      21.95622198      11.48178705       0.00000000       0.00000000       0.00000000
C       17.08442454       3.53422107      12.83642693       0.00000000       0.00000000       0.00000000
C       14.03424415      18.49187288       9.29190575       0.00000000       0.00000000       0.00000000
C        8.84279157      15.43443891       9.02500059       0.00000000       0.00000000       0.00000000
C       17.22178977       1.81341981      17.05312857       0.00000000       0.00000000       0.00000000
C       17.16476631       2.92155551       6.74702702       0.00000000       0.00000000       0.00000000
C       21.78345491       0.01594334      16.95610455       0.00000000       0.00000000       0.00000000
C        9.46713517      18.66295992      15.94899811       0.00000000       0.00000000       0.00000000
C        7.54776649      11.88930278      10.59872450       0.00000000       0.00000000       0.00000000
C       11.76729235       9.66960453       8.57929320       0.00000000       0.00000000       0.00000000
C        8.01263109       7.90634637       7.73782356       0.00000000       0.00000000       0.00000000
C       19.71043483      13.11902771      14.82705571       0.00000000       0.00000000       0.00000000
C       20.49038985      15.16013354      16.90226778       0.00000000       0.00000000       0.00000000
C       15.04462190      12.43966736      17.16282620       0.00000000       0.00000000       0.00000000
C       15.57799872       1.33708301      14.79244988       0.00000000       0.00000000       0.00000000
C       11.31382860      15.84810416       9.61779186       0.00000000       0.00000000       0.00000000
C       16.25196129      19.53836899      10.20844809       0.00000000       0.00000000       0.00000000
C        7.73521263       0.59134655       8.51970582       0.00000000       0.00000000       0.00000000
C       11.13281367       4.08549943      12.42227078       0.00000000       0.00000000       0.00000000
C       14.97098161       5.21908271       7.61552177       0.00000000       0.00000000       0.00000000
C       19.33678038      17.32382585      10.44831201       0.00000000       0.00000000       0.00000000
C       11.52667824       7.19565011       7.18591010       0.00000000       0.00000000       0.00000000
C        7.02143115      20.51644406      10.05123274       0.00000000       0.00000000       0.00000000
C       16.77916368      17.87417626      16.22574090       0.00000000       0.00000000       0.00000000
C       10.76553110       5.39519151      17.52512976       0.00000000       0.00000000       0.00000000
C       10.92959712       0.77529366      12.41586301       0.00000000       0.00000000       0.00000000
C       15.63887554      18.31031788      17.34695671       0.00000000       0.00000000       0.00000000
C        8.26417111       2.66269440      12.48677997       0.00000000       0.00000000       0.00000000
C       13.72186536       4.32226507      11.26012402       0.00000000       0.00000000       0.00000000
C       16.37481331      16.39719288      11.85265448       0.00000000       0.00000000       0.00000000
C       18.23717829       2.89961198       7.44268501       0.00000000       0.00000000       0.00000000
C       19.59885236      14.75765942      10.92073923       0.00000000       0.00000000       0.00000000
C       12.16970756      13.83525663       8.82069537       0.00000000       0.00000000       0.00000000
C       12.73058220       9.72950587      13.33408818       0.00000000       0.00000000       0.00000000
C        8.66214250       2.09765114      16.53885916       0.00000000       0.00000000       0.00000000
C       16.56821277      12.08586305      12.97485665       0.00000000       0.00000000       0.00000000
C       16.89707844      20.88370682       7.52232506       0.00000000       0.00000000       0.00000000
C       12.09102759       0.60514922       8.04499796       0.00000000       0.00000000       0.00000000
C       11.20032620       1.48812175       7.77950105       0.00000000       0.00000000       0.00000000
C       15.32371550      11.31331483       9.11522434       0.00000000       0.00000000       0.00000000
C       20.20168851      19.15665535       6.92365388       0.00000000       0.00000000       0.00000000
C       22.63649746      15.37866518      13.41195521       0.00000000       0.00000000       0.00000000
C       14.78276630       8.40586959      12.03764435       0.00000000       0.00000000       0.00000000
C       13.95402587      15.83835083      15.44559345       0.00000000       0.00000000       0.00000000
C       18.97110375      21.71305115       9.95867321       0.00000000       0.00000000       0.00000000
C       19.66370688      16.03779132      16.70129688       0.00000000       0.00000000       0.00000000
C       13.84999719       4.12645697       8.50759991       0.00000000       0.00000000       0.00000000
C       20.75769603      22.35857367      16.41301793       0.00000000       0.00000000       0.00000000
C       15.38494458      22.01824524      16.38456118       0.00000000       0.00000000       0.00000000
C       18.09462786       6.05782871       6.86146493       0.00000000       0.00000000       0.00000000
C       21.21915479       2.95513653      16.51819458       0.00000000       0.00000000       0.00000000
C       15.13434922      15.43629649      15.96708377       0.00000000       0.00000000       0.00000000
C       12.67812085      22.54560665      14.71919405       0.00000000       0.00000000       0.00000000
C       14.50951455       1.95756280      10.22800591       0.00000000       0.00000000       0.00000000
C       10.90607864       0.32989943      10.72322794       0.00000000       0.00000000       0.00000000
C       13.47542221      12.01738907      10.80180312       0.00000000       0.00000000       0.00000000
C        6.92386425      11.33138992       7.41051001       0.00000000       0.00000000       0.00000000
C       21.39275573      19.31517051      14.38125879       0.00000000       0.00000000       0.00000000
C       10.79585721      18.22359116      12.75970498       0.00000000       0.00000000       0.00000000
C       15.50867382       1.29624612      10.08320431       0.00000000       0.00000000       0.00000000
C       14.50984644       5.08404859      16.07348105       0.00000000       0.00000000       0.00000000
C        8.75056901       5.10827915      15.41214186       0.00000000       0.00000000       0.00000000
C       20.04482400      18.51053565      14.05539943       0.00000000       0.00000000       0.00000000
C       19.54469402      16.34085316      11.49469639       0.00000000       0.00000000       0.00000000
C       21.40847901      10.02742835       8.48427229       0.00000000       0.00000000       0.00000000
C       14.97776826       7.71543994       9.19221556       0.00000000       0.00000000       0.00000000
C       13.84116610      11.92730479      16.72926440       0.00000000       0.00000000       0.00000000
C        9.30016884      11.34406335      10.42558741       0.00000000       0.00000000       0.00000000
C       15.52523925      18.63553139      13.23912559       0.00000000       0.00000000       0.00000000
C       10.38156411       7.08516396      10.28777844       0.00000000       0.00000000       0.00000000
C       10.77099127      12.88000157      13.18090190       0.00000000       0.00000000       0.00000000
C       18.17290194       7.55555091       8.49601452       0.00000000       0.00000000       0.00000000
C       21.06275780       4.89275210       8.26666778       0.00000000       0.00000000       0.00000000
C       10.47591046       6.72194965       6.56916149       0.00000000       0.00000000       0.00000000
C       11.66600619      21.52239664      16.60172833       0.00000000       0.00000000       0.00000000
C        8.61545899      21.51534618      13.28857684       0.00000000       0.00000000       0.00000000
C       15.84505415      17.47942277      12.53259305       0.00000000       0.00000000       0.00000000
C       17.54697110       5.17695814      10.51910177       0.00000000       0.00000000       0.00000000
C       20.63544604      21.10790583      17.18107348       0.00000000       0.00000000       0.00000000
C       17.84076252      13.76697232       7.13932764       0.00000000       0.00000000       0.00000000
C       10.38220303      12.91773188      16.04875905       0.00000000       0.00000000       0.00000000
C       21.99233159       9.87232548      12.66427315       0.00000000       0.00000000       0.00000000
C       19.40965097      18.32496829       9.49183493       0.00000000       0.00000000       0.00000000
C       22.04412269      11.01841172      16.53248378       0.00000000       0.00000000       0.00000000
C       13.81623291       2.18216001      17.14667848       0.00000000       0.00000000       0.00000000
C        9.06426502      13.43871834       6.38851953       0.00000000       0.00000000       0.00000000
C        7.39230778       6.98929967      12.67099251       0.00000000       0.00000000       0.00000000
C        7.74113771       6.12840675       8.54160791       0.00000000       0.00000000       0.00000000
C        7.47339007      14.66948256      12.68487517       0.00000000       0.00000000       0.00000000
C       14.01719927      21.51938036      12.84243124       0.00000000       0.00000000       0.00000000
C       10.49392737      22.43814445       7.34753345       0.00000000       0.00000000       0.00000000
C        6.83185867       8.32745776      12.54884548       0.00000000       0.00000000       0.00000000
C       10.86801514      21.09088816      10.66751948       0.00000000       0.00000000       0.00000000
C       10.78014200      15.54241185      13.79040389       0.00000000       0.00000000       0.00000000
C       17.80796172      14.67265469       8.25567240       0.00000000       0.00000000       0.00000000
C        6.83761277      20.09278113       7.17326216       0.00000000       0.00000000       0.00000000
C       18.51556632      11.66040111      10.29671024       0.00000000       0.00000000       0.00000000
C       20.59879023      22.81019664       7.83854118       0.00000000       0.00000000       0.00000000
C       17.57917749      21.73648364      12.80833928       0.00000000       0.00000000       0.00000000
C       21.33791267       2.02049170      13.39553677       0.00000000       0.00000000       0.00000000
C       11.20312512       7.02966399      14.24730133       0.00000000       0.00000000       0.00000000
C       19.17275866       8.61629670      14.96931982       0.00000000       0.00000000       0.00000000
C       22.71212992      16.30468777      12.30601632       0.00000000       0.00000000       0.00000000
C       21.10680008      15.14890984       6.40462741       0.00000000       0.00000000       0.00000000
C       11.38014037      22.16300179      10.14970251       0.00000000       0.00000000       0.00000000
C        7.66847243      11.83656501      16.51891397       0.00000000       0.00000000       0.00000000
C       13.01471935       8.61148688      12.40792675       0.00000000       0.00000000       0.00000000
C        8.98000399       9.46189469      15.44637343       0.00000000       0.00000000       0.00000000
C       18.71036224      13.61321767      15.57984161       0.00000000       0.00000000       0.00000000
C        7.14014319      17.14608074      15.13101586       0.00000000       0.00000000       0.00000000
C       16.92681835       4.49924788      13.88106790       0.00000000       0.00000000       0.00000000
C       13.90059527       8.77728661      16.79954087       0.00000000       0.00000000       0.00000000
C       18.55130915       2.27418974       8.68500125       0.00000000       0.00000000       0.00000000
C       16.17856768       5.02293595      15.94609253       0.00000000       0.00000000       0.00000000
C       18.66343467       9.14644083      13.69118919       0.00000000       0.00000000       0.00000000
C        9.79968221       4.70336751      12.14669613       0.00000000       0.00000000       0.00000000
C       20.28318482       5.46455662      16.90483824       0.00000000       0.00000000       0.00000000
C       14.92029918      19.12563331      10.06205487       0.00000000       0.00000000       0.00000000
C       14.85871417       7.49522062      13.46776278       0.00000000       0.00000000       0.00000000
Hf      20.60249804      22.85376150      12.35091266       0.00000000       0.00000000       0.00000000
Hf      22.21610843       9.05501676      10.69682097       0.00000000       0.00000000       0.00000000
Hf      11.45251422      11.45251422      11.96281572       0.00000000       0.00000000       0.00000000
Hf      22.05664705       6.01473251      15.52932349       0.00000000       0.00000000       0.00000000
Hf       7.88461362      20.65472426      15.69658015       0.00000000       0.00000000       0.00000000
Hf       7.03317764      21.73610888      11.62423504       0.00000000       0.00000000       0.00000000
Hf      20.22471908      10.86196397      14.41389341       0.00000000       0.00000000       0.00000000
Hf       9.08557193       2.60065546       7.64738926       0.00000000       0.00000000       0.00000000
Hf      20.92839196      20.78027116       9.74009933       0.00000000       0.00000000       0.00000000
Hf      16.60584881       8.58578970       9.85300600       0.00000000       0.00000000       0.00000000
Hf      17.14310013       9.58356932      15.09894122       0.00000000       0.00000000       0.00000000
Hf      17.43338071       6.84839280      12.30518378       0.00000000       0.00000000       0.00000000
Hf      10.33400929       5.98374403       8.75745781       0.00000000       0.00000000       0.00000000
Hf      11.31209870      18.31931833      10.22182796       0.00000000       0.00000000       0.00000000
Hf      13.53529643       9.34546904      10.23990029       0.00000000       0.00000000       0.00000000
Hf      17.15144197      14.08209167      12.41221032       0.00000000       0.00000000       0.00000000
Hf      16.54657775      16.13213504       9.60373960       0.00000000       0.00000000       0.00000000
Hf      18.94745220       0.62810068      13.58633116       0.00000000       0.00000000       0.00000000
Hf      11.55634780      11.54657061       9.10942194       0.00000000       0.00000000       0.00000000
Hf      18.45871628      20.73676351      14.56066770       0.00000000       0.00000000       0.00000000
Hf      20.46920425       0.14540610      11.08202102       0.00000000       0.00000000       0.00000000
Nb       9.44916077      20.34715386      12.10525081       0.00000000       0.00000000       0.00000000
Nb      18.38651153      11.88476746      17.00562742       0.00000000       0.00000000       0.00000000
Nb      10.65944257       9.26604053      13.76095713       0.00000000       0.00000000       0.00000000
Nb      13.70811396       0.65631247      14.73195918       0.00000000       0.00000000       0.00000000
Nb      20.76819305      18.55684721      16.42165384       0.00000000       0.00000000       0.00000000
Nb      14.11007785      13.55118698       8.66207375       0.00000000       0.00000000       0.00000000
Nb       7.36636774       9.45773107      16.99291845       0.00000000       0.00000000       0.00000000
Nb      15.53663228      20.29752029      12.23642991       0.00000000       0.00000000       0.00000000
Nb      17.18336541      22.23841119      10.49980770       0.00000000       0.00000000       0.00000000
Nb      22.16188692      15.22804857       8.21736880       0.00000000       0.00000000       0.00000000
Nb      11.24675447       6.40082977      12.02889391       0.00000000       0.00000000       0.00000000
Nb      17.19919843      16.15194480      15.74568072       0.00000000       0.00000000       0.00000000
Nb      14.52686925       5.55798749      12.47986769       0.00000000       0.00000000       0.00000000
Nb      15.18034530      15.61123789      13.77514618       0.00000000       0.00000000       0.00000000
Nb       9.15158326      11.92078866      15.05570613       0.00000000       0.00000000       0.00000000
Nb      19.83377774      12.95394612       8.49121012       0.00000000       0.00000000       0.00000000
Nb      11.83033854      11.73824426      17.04000266       0.00000000       0.00000000       0.00000000
C        8.60720207      12.91635449       9.18904139       0.00000000       0.00000000       0.00000000
C       15.92510626       0.52616902      16.45114160       0.00000000       0.00000000       0.00000000
C       19.36147407       9.64997242      11.31834226       0.00000000       0.00000000       0.00000000
C       12.60732677      19.02081228      13.58848100       0.00000000       0.00000000       0.00000000
Nb      20.54936947       3.36736626      14.58540210       0.00000000       0.00000000       0.00000000
Nb      10.73815217       4.26766149      15.34772204       0.00000000       0.00000000       0.00000000
Nb      15.40075164       9.94696591      12.94201863       0.00000000       0.00000000       0.00000000
Nb      15.16978865       3.39928936      14.51688249       0.00000000       0.00000000       0.00000000
Nb      22.47275542      19.70275145       6.62226380       0.00000000       0.00000000       0.00000000
Nb      14.42593792      17.59398078      15.58846023       0.00000000       0.00000000       0.00000000
Nb       8.11791154       3.21621214      14.89785461       0.00000000       0.00000000       0.00000000
Nb       8.65946740      12.52556577      12.45500955       0.00000000       0.00000000       0.00000000
Nb      13.97296511      10.61119666      14.81195154       0.00000000       0.00000000       0.00000000
Ta      14.05478311      21.79462507       9.88468903       0.00000000       0.00000000       0.00000000
Ta      11.25137582      20.93937258       8.29002892       0.00000000       0.00000000       0.00000000
Ta      13.39401558       7.68512111      14.78280633       0.00000000       0.00000000       0.00000000
Ta      18.35304158      18.53775797       6.57915916       0.00000000       0.00000000       0.00000000
Ta      11.59304931      14.08407694      10.99031942       0.00000000       0.00000000       0.00000000
Ta      22.13930016      20.34409109      12.39036718       0.00000000       0.00000000       0.00000000
Ta      12.52140414      16.31300126      13.03537469       0.00000000       0.00000000       0.00000000
Ta      21.40824593       0.55980359      15.19970905       0.00000000       0.00000000       0.00000000
Ta       7.28122178       9.68979912      14.31729226       0.00000000       0.00000000       0.00000000
Ta      19.11462075       4.58802173       9.33776850       0.00000000       0.00000000       0.00000000
Ta      18.46732976       6.63915709      15.41096320       0.00000000       0.00000000       0.00000000
Ta      19.66212008       9.75431677       8.93597865       0.00000000       0.00000000       0.00000000
Ta       9.77609086       8.41920362       9.10625542       0.00000000       0.00000000       0.00000000
Ta      13.04672705       2.68134269      12.26709929       0.00000000       0.00000000       0.00000000
Ta      14.07945081       0.40698236       6.85686299       0.00000000       0.00000000       0.00000000
Ta      16.58416040       6.20564966       8.69413881       0.00000000       0.00000000       0.00000000
Ta      22.41330510       4.13977195       6.89622791       0.00000000       0.00000000       0.00000000
Ta      13.75295349      14.13750788      17.26080140       0.00000000       0.00000000       0.00000000
Ta      17.43711006       3.55178977      15.78403534       0.00000000       0.00000000       0.00000000
Ta      20.95759838       7.91729062      13.33024632       0.00000000       0.00000000       0.00000000
Ta      15.35914171       2.80500800       8.06268853       0.00000000       0.00000000       0.00000000
Ti       9.59796938      16.53536208      12.67579220       0.00000000       0.00000000       0.00000000
Ti       8.96522167      21.32380731       9.50329889       0.00000000       0.00000000       0.00000000
Ti      13.51199968      16.22780245       8.82355960       0.00000000       0.00000000       0.00000000
Ti      20.07389398       6.54493421       7.43406636       0.00000000       0.00000000       0.00000000
Ti      22.88031443      19.97592816      16.70649078       0.00000000       0.00000000       0.00000000
Ti      15.68128303      11.61536752      10.85814777       0.00000000       0.00000000       0.00000000
Ti       8.18718811       9.59379690      11.38548380       0.00000000       0.00000000       0.00000000
Ti      21.27837911      15.41930780      11.91649402       0.00000000       0.00000000       0.00000000
Ti      13.33580259       5.62572373      10.03238441       0.00000000       0.00000000       0.00000000
Ti      13.81015037      20.58045545      17.45909371       0.00000000       0.00000000       0.00000000
Ti      10.37471613      21.95390993      14.93017270       0.00000000       0.00000000       0.00000000
Ti       8.39334427       9.88895818       6.69052071       0.00000000       0.00000000       0.00000000
Ti       9.93375262       2.34243566      10.86976787       0.00000000       0.00000000       0.00000000
Ti      15.11406252       1.29907293      12.84600830       0.00000000       0.00000000       0.00000000
Ti      10.46923908      14.78303346      17.40915283       0.00000000       0.00000000       0.00000000
Ti      17.08736082      13.08492168       9.14372067       0.00000000       0.00000000       0.00000000
Ti       9.04130044      14.97062902      14.69494745       0.00000000       0.00000000       0.00000000
Ti      22.43359394      16.43695260      15.46379795       0.00000000       0.00000000       0.00000000
Ti      17.93549321      19.55327761       9.20161690       0.00000000       0.00000000       0.00000000
Ti      11.12366694      19.45995477      16.17482222       0.00000000       0.00000000       0.00000000
Ti      21.26194544      12.25824142      10.63242647       0.00000000       0.00000000       0.00000000
Ti      15.98563664      12.33934478      15.12427208       0.00000000       0.00000000       0.00000000
Ti       8.95401860      16.95168334      16.23838260       0.00000000       0.00000000       0.00000000
Ti      14.68333361      22.09515390      14.57311284       0.00000000       0.00000000       0.00000000
Ti       8.01105209       5.01702125      12.63561398       0.00000000       0.00000000       0.00000000
Ti       9.38772538      18.85798124      14.23700284       0.00000000       0.00000000       0.00000000
Zr       7.64315916       4.47794549       9.53981066       0.00000000       0.00000000       0.00000000
Zr      10.44825187      15.30390454       7.66971396       0.00000000       0.00000000       0.00000000
Zr      22.20592218       8.92012711       6.88136606       0.00000000       0.00000000       0.00000000
Zr       7.86991171       5.45066834       6.40039088       0.00000000       0.00000000       0.00000000
Zr      20.19592852       1.61284197       7.34333209       0.00000000       0.00000000       0.00000000
Zr       8.63800174       7.27437659      15.76941002       0.00000000       0.00000000       0.00000000
Zr      17.90771487      17.58087298      12.64629896       0.00000000       0.00000000       0.00000000
Zr      12.44478150       2.92702142       9.33853542       0.00000000       0.00000000       0.00000000
Zr      20.18395570       7.68880505      17.52052877       0.00000000       0.00000000       0.00000000
Zr       7.48624726      15.08027970       7.30950811       0.00000000       0.00000000       0.00000000
Zr       7.70961509      18.06705336       9.91473996       0.00000000       0.00000000       0.00000000
Zr       9.63828222       0.66718416      15.36117956       0.00000000       0.00000000       0.00000000
Zr      12.18392219      13.41983728      14.21266472       0.00000000       0.00000000       0.00000000
Zr      12.85111181       0.06918103      10.56220635       0.00000000       0.00000000       0.00000000
Zr      21.72569230       3.25547606      10.66820301       0.00000000       0.00000000       0.00000000
Zr       8.22078079       0.49380757      11.61566867       0.00000000       0.00000000       0.00000000
Zr      12.80520812       5.71073307      17.09152294       0.00000000       0.00000000       0.00000000
Zr      20.16557477      15.85385520      13.82139866       0.00000000       0.00000000       0.00000000
Zr      11.70853781      21.95219536      12.47838429       0.00000000       0.00000000       0.00000000
Zr      19.65250750      16.20946221       8.37073545       0.00000000       0.00000000       0.00000000
Zr      19.19993867      19.91373709      11.92023347       0.00000000       0.00000000       0.00000000
Zr       6.82984532       7.11968874      10.33266659       0.00000000       0.00000000       0.00000000
Zr       7.37679403      22.21493670       6.86954703       0.00000000       0.00000000       0.00000000
Zr      22.19998906      13.30463710      14.12861470       0.00000000       0.00000000       0.00000000
Zr      14.12172838      10.47375522       7.24101945       0.00000000       0.00000000       0.00000000
Zr      16.68326428       3.50344249      11.09941971       0.00000000       0.00000000       0.00000000
Zr      14.23851358       7.16871183       6.96669538       0.00000000       0.00000000       0.00000000
853
Lattice="22.90502845 0.0 0.0 0.0 22.90502845 0.0 0.0 0.0 22.90502845" Properties=species:S:1:pos:R:3:momenta:R:3 pbc="T T T"
C       19.99091443       7.48617555       2.86350752       0.00000000       0.00000000       0.00000000
C       11.46315026      16.56397962       0.69789535       0.00000000       0.00000000       0.00000000
C       16.99037656       8.75457361       3.95163046       0.00000000       0.00000000       0.00000000
C       15.16672280      12.91510818       4.44274133       0.00000000       0.00000000       0.00000000
C        2.60505458       1.05013721      18.73378403       0.00000000       0.00000000       0.00000000
C        3.57142143      15.14947627       6.24932261       0.00000000       0.00000000       0.00000000
C        9.25308280      10.55652143       1.95930547       0.00000000       0.00000000       0.00000000
C       17.13109193      12.08420951      18.80218997       0.00000000       0.00000000       0.00000000
C       16.05670406      18.19742321       6.00195537       0.00000000       0.00000000       0.00000000
C        2.88403516       5.35524639       0.33030199       0.00000000       0.00000000       0.00000000
C        8.40823238       0.34285021      18.86187655       0.00000000       0.00000000       0.00000000
C       11.36838455       6.41494328       1.51453877       0.00000000       0.00000000       0.00000000
C        3.64576634      16.35692506      19.18692444       0.00000000       0.00000000       0.00000000
C       19.91749163      10.87731157      17.53796898       0.00000000       0.00000000       0.00000000
C        4.73594219      19.29158546      18.51482427       0.00000000       0.00000000       0.00000000
C        8.52453794      15.41469839      22.43995826       0.00000000       0.00000000       0.00000000
C       20.52488270       5.74761909      20.45507737       0.00000000       0.00000000       0.00000000
C        8.36369189       7.62884434       2.52385023       0.00000000       0.00000000       0.00000000
C        8.38938330       3.68486869      20.90537226       0.00000000       0.00000000       0.00000000
C        1.62186842      17.29954424       4.55477848       0.00000000       0.00000000       0.00000000
C       22.70390860      21.80386723       4.85310548       0.00000000       0.00000000       0.00000000
C       10.22477638      11.33893417      21.99111898       0.00000000       0.00000000       0.00000000
C        0.74986176      19.86080189      22.54548249       0.00000000       0.00000000       0.00000000
C       19.89564519       9.65960267       5.12173290       0.00000000       0.00000000       0.00000000
C       11.35483102      14.27093658      21.31701322       0.00000000       0.00000000       0.00000000
C        3.62895801      18.56467707      21.55064873       0.00000000       0.00000000       0.00000000
C        4.59907625      11.31322410      21.91794288       0.00000000       0.00000000       0.00000000
C       17.04828884      22.26537823      17.76757929       0.00000000       0.00000000       0.00000000
C       14.07652689      20.12025695       4.07387790       0.00000000       0.00000000       0.00000000
C       21.62132592      18.31918099       5.90534094       0.00000000       0.00000000       0.00000000
C       16.96633228      10.91550134       6.29912256       0.00000000       0.00000000       0.00000000
C       13.29576412      22.70535788      21.93612015       0.00000000       0.00000000       0.00000000
C       22.58453384      19.52239201       2.63055513       0.00000000       0.00000000       0.00000000
C       14.17232573      13.33580095      20.18300188       0.00000000       0.00000000       0.00000000
C        2.69978168       3.31114767      20.99578656       0.00000000       0.00000000       0.00000000
C        8.44219341      22.34425831       6.13225803       0.00000000       0.00000000       0.00000000
C        3.58555694      12.83335509       4.18189330       0.00000000       0.00000000       0.00000000
C       16.19523186      13.56747496       1.34605098       0.00000000       0.00000000       0.00000000
C        6.80482391       1.34449610       4.26614956       0.00000000       0.00000000       0.00000000
C        1.77180446       6.73596249       5.79221549       0.00000000       0.00000000       0.00000000
C       13.30345419      12.47835097       0.22107473       0.00000000       0.00000000       0.00000000
C        7.54132770      16.82376223       4.77362192       0.00000000       0.00000000       0.00000000
C        3.72928363       8.25033970      22.49143787       0.00000000       0.00000000       0.00000000
C        9.20598859       8.34547810      22.57312080       0.00000000       0.00000000       0.00000000
C       11.48761215       1.25169482      19.97776978       0.00000000       0.00000000       0.00000000
C        6.52442705       5.02994090      19.06038177       0.00000000       0.00000000       0.00000000
C       11.27864275      12.19944927      19.01955435       0.00000000       0.00000000       0.00000000
C       16.04336497       0.97592458       0.26576141       0.00000000       0.00000000       0.00000000
C        4.71776280       1.22174449       0.06991577       0.00000000       0.00000000       0.00000000
C       22.00456558       1.05322743       0.09184330       0.00000000       0.00000000       0.00000000
C       18.75983735      20.38917273      19.51163941       0.00000000       0.00000000       0.00000000
C       12.24232392      17.26574206      20.45352638       0.00000000       0.00000000       0.00000000
C        0.02290726       8.63519843       3.75868847       0.00000000       0.00000000       0.00000000
C        6.56189864       7.39647796      21.24092649       0.00000000       0.00000000       0.00000000
C       15.23856364      20.67735924       0.93249987       0.00000000       0.00000000       0.00000000
C        5.13236982       3.60617958       3.18758578       0.00000000       0.00000000       0.00000000
C        8.22321963      13.03482950      20.05234064       0.00000000       0.00000000       0.00000000
C       20.94293913       0.47241290       3.11056296       0.00000000       0.00000000       0.00000000
C        0.18089761      12.01536067      18.82566266       0.00000000       0.00000000       0.00000000
C        0.84468461       4.90932191      19.21122368       0.00000000       0.00000000       0.00000000
C       11.41485272      21.21239396       5.16976831       0.00000000       0.00000000       0.00000000
C       19.15639047       6.81439221       5.82386787       0.00000000       0.00000000       0.00000000
C        5.46213115      19.12950805       2.75502960       0.00000000       0.00000000       0.00000000
C        4.48861538       5.98066503       4.58566985       0.00000000       0.00000000       0.00000000
C       15.08890253      18.37418571      21.64969251       0.00000000       0.00000000       0.00000000
C       18.28966361      11.70193006       3.24019781       0.00000000       0.00000000       0.00000000
C        7.38090626      12.37008379       0.20488420       0.00000000       0.00000000       0.00000000
C       14.17326432       2.88636831      21.22360866       0.00000000       0.00000000       0.00000000
C        7.31431545       6.77588680       5.72271815       0.00000000       0.00000000       0.00000000
C        5.63530150      12.16877965      18.85945602       0.00000000       0.00000000       0.00000000
C        6.61875962      15.17925668      18.20012402       0.00000000       0.00000000       0.00000000
C       20.85604040      12.98308516       4.31281854       0.00000000       0.00000000       0.00000000
C       10.35504228       3.18280180       2.33234901       0.00000000       0.00000000       0.00000000
C       19.47092735      10.42613181      20.31390509       0.00000000       0.00000000       0.00000000
C       12.19403402       7.32349634      21.53561612       0.00000000       0.00000000       0.00000000
C        3.68571886       2.84175759       5.54957569       0.00000000       0.00000000       0.00000000
C        0.05172649       6.43883092       1.48171989       0.00000000       0.00000000       0.00000000
C        6.43802788      22.02172711       2.04887716       0.00000000       0.00000000       0.00000000
C       16.15133902      15.78771652       3.70882099       0.00000000       0.00000000       0.00000000
C       19.90859577       2.85568121      21.35147526       0.00000000       0.00000000       0.00000000
C       19.76129387      15.58270769      22.14423217       0.00000000       0.00000000       0.00000000
C        9.35317310       6.19301306      20.19093347       0.00000000       0.00000000       0.00000000
C       17.97358235       6.51988867      21.75681640       0.00000000       0.00000000       0.00000000
C       13.36063634      14.67835012       2.75097361       0.00000000       0.00000000       0.00000000
C       13.11075401       8.08828676      18.54930920       0.00000000       0.00000000       0.00000000
C       16.14029207       5.64182297       4.73876153       0.00000000       0.00000000       0.00000000
C       18.10841492      17.44216280      20.15981702       0.00000000       0.00000000       0.00000000
C       19.14744075      12.42317008       0.06647133       0.00000000       0.00000000       0.00000000
C        0.86687320      11.93768831       3.06883401       0.00000000       0.00000000       0.00000000
C       14.99024180       3.61888881      18.37642108       0.00000000       0.00000000       0.00000000
C       18.96647626      22.85307658      21.93610847       0.00000000       0.00000000       0.00000000
C        2.62232749      15.60443219      22.30974560       0.00000000       0.00000000       0.00000000
C        2.85027922       7.68511578       2.62572683       0.00000000       0.00000000       0.00000000
C        2.66858682      20.37588894       3.78166774       0.00000000       0.00000000       0.00000000
C       20.83053970      18.72675916      21.22734945       0.00000000       0.00000000       0.00000000
C        2.00769097      10.15768655      20.79633739       0.00000000       0.00000000       0.00000000
C        7.58755432       8.07270130      18.35253430       0.00000000       0.00000000       0.00000000
C       12.11859161      15.17972756      18.15610366       0.00000000       0.00000000       0.00000000
C       13.25900610      20.44084319      19.70702900       0.00000000       0.00000000       0.00000000
C       14.08832606      22.52850909       6.31934477       0.00000000       0.00000000       0.00000000
C       16.04287446      19.32154874      18.34567730       0.00000000       0.00000000       0.00000000
C        1.09028200       1.81323120       4.32934158       0.00000000       0.00000000       0.00000000
C       19.99850345       0.55551434      19.01662354       0.00000000       0.00000000       0.00000000
C       10.43463031      19.21852028      18.44473361       0.00000000       0.00000000       0.00000000
C       18.41391625      10.02450050      20.86293766       0.00000000       0.00000000       0.00000000
C       13.91999239       5.04073378       0.59549293       0.00000000       0.00000000       0.00000000
C       18.77906869      17.24752113       4.72093709       0.00000000       0.00000000       0.00000000
C       17.12508392      18.97893874       2.84559589       0.00000000       0.00000000       0.00000000
C       12.43720378      13.85970775       5.75155751       0.00000000       0.00000000       0.00000000
C        5.67720314      14.32499333      21.21195103       0.00000000       0.00000000       0.00000000
C        6.30836451       9.41137930       0.84492821       0.00000000       0.00000000       0.00000000
C       22.84722523       1.60740663      20.08219639       0.00000000       0.00000000       0.00000000
C       15.01403161       6.19983058      20.51803702       0.00000000       0.00000000       0.00000000
C       18.24758247       9.53566841       0.95361362       0.00000000       0.00000000       0.00000000
C       16.01661897       3.27467922       2.46418516       0.00000000       0.00000000       0.00000000
C       17.81100767       1.37147443       4.52579418       0.00000000       0.00000000       0.00000000
C        8.39408436      11.07656542      17.56075304       0.00000000       0.00000000       0.00000000
C       17.98303245      19.67956568      22.72931367       0.00000000       0.00000000       0.00000000
C       12.25953859       4.88773688      19.28106721       0.00000000       0.00000000       0.00000000
C       12.31646096      11.65724428       3.15402928       0.00000000       0.00000000       0.00000000
C       14.86491235       8.37576521      22.70906705       0.00000000       0.00000000       0.00000000
C        0.80327527      14.09390050       5.39011828       0.00000000       0.00000000       0.00000000
C        8.59675302      17.70406780       1.78956821       0.00000000       0.00000000       0.00000000
C       20.87344928      16.28998804      19.09259031       0.00000000       0.00000000       0.00000000
C       17.09208393      16.63781697       0.37751647       0.00000000       0.00000000       0.00000000
C       12.92570260      10.21926990      21.09912093       0.00000000       0.00000000       0.00000000
C        2.00520349       4.62002591       3.66619243       0.00000000       0.00000000       0.00000000
C        0.62737969       7.03803577      21.57171868       0.00000000       0.00000000       0.00000000
C        5.62269585      21.37538794       4.83296093       0.00000000       0.00000000       0.00000000
C       21.82532077      13.71948471       1.41568835       0.00000000       0.00000000       0.00000000
C        1.82903216       2.31781835       1.26950326       0.00000000       0.00000000       0.00000000
C       17.97883099      15.03971130      17.83507492       0.00000000       0.00000000       0.00000000
C        2.55684593      18.04961520       1.58197146       0.00000000       0.00000000       0.00000000
C        1.87430276      22.87087507      21.83787941       0.00000000       0.00000000       0.00000000
C       13.14403193       4.38028464       3.59119284       0.00000000       0.00000000       0.00000000
C       13.45688797      16.96685612       4.96567389       0.00000000       0.00000000       0.00000000
C       17.43983923       7.69755289      21.82242568       0.00000000       0.00000000       0.00000000
C        7.54539885      14.69794303       2.65532771       0.00000000       0.00000000       0.00000000
C       14.08021055       9.61352921       5.09190692       0.00000000       0.00000000       0.00000000
C        4.75150002       9.20101070      19.49771314       0.00000000       0.00000000       0.00000000
C       19.92348408       5.17338655       0.81189725       0.00000000       0.00000000       0.00000000
C        2.94249087      13.27359193      20.00752310       0.00000000       0.00000000       0.00000000
C       15.12391112       0.16307204       3.40626075       0.00000000       0.00000000       0.00000000
C       14.50628605      17.68343957       1.83400105       0.00000000       0.00000000       0.00000000
C       10.50388685      18.16938090       6.01163685       0.00000000       0.00000000       0.00000000
C        7.68045115      22.71975265      21.80576760       0.00000000       0.00000000       0.00000000
C        2.84031248       9.92058819       5.05442054       0.00000000       0.00000000       0.00000000
C        7.58668249       2.30444365       1.23672479       0.00000000       0.00000000       0.00000000
C       10.63451928       2.30527744      20.35550796       0.00000000       0.00000000       0.00000000
C       11.30525635       4.33350179      22.21602263       0.00000000       0.00000000       0.00000000
C       16.96566628       3.93087823      22.40350829       0.00000000       0.00000000       0.00000000
C       11.23124494      18.67783605       3.07586930       0.00000000       0.00000000       0.00000000
C       18.93628731       2.17637003       1.36665834       0.00000000       0.00000000       0.00000000
C        4.63111741      13.52597296       1.33765856       0.00000000       0.00000000       0.00000000
C       21.66586888      16.17392051       3.54173977       0.00000000       0.00000000       0.00000000
C       11.31487374      22.25968427      17.69296740       0.00000000       0.00000000       0.00000000
C       13.07050778       6.61207034       5.77128795       0.00000000       0.00000000       0.00000000
C        5.67454679       1.93089839      19.73159268       0.00000000       0.00000000       0.00000000
C        9.54031206      18.37934573      21.58206815       0.00000000       0.00000000       0.00000000
C        0.62972860      17.38086539      20.31292413       0.00000000       0.00000000       0.00000000
C       21.79557960       3.32812516       2.61487293       0.00000000       0.00000000       0.00000000
C        5.87421474      21.72018484      17.72726505       0.00000000       0.00000000       0.00000000
C        9.04441975       2.45310697      20.69217881       0.00000000       0.00000000       0.00000000
C       12.31951447       1.25707167       4.37910413       0.00000000       0.00000000       0.00000000
C       12.44003308      19.62328730      22.87208482       0.00000000       0.00000000       0.00000000
C        5.70584999      10.93444260       6.32530284       0.00000000       0.00000000       0.00000000
C       14.46248460      15.39492150      22.43224616       0.00000000       0.00000000       0.00000000
C        1.85983820       7.83507446      18.36373558       0.00000000       0.00000000       0.00000000
C       22.76263455       3.98140392      22.41169693       0.00000000       0.00000000       0.00000000
C        9.43057121       2.50522095       5.37989108       0.00000000       0.00000000       0.00000000
C       19.77389054      17.99359407       1.72400038       0.00000000       0.00000000       0.00000000
C       10.33601333       9.06982100      19.51608592       0.00000000       0.00000000       0.00000000
C       10.99501475      10.82835897       6.04978878       0.00000000       0.00000000       0.00000000
C       14.26921982      11.37799195      18.32093863       0.00000000       0.00000000       0.00000000
C       14.28089150       0.55210037      18.83553757       0.00000000       0.00000000       0.00000000
C       10.48659958       0.77668984       0.19842378       0.00000000       0.00000000       0.00000000
C        4.57187442      15.96399153       3.47425896       0.00000000       0.00000000       0.00000000
C        0.85739228      15.14537027      18.13305179       0.00000000       0.00000000       0.00000000
C       15.98602805      11.47431054      21.99614949       0.00000000       0.00000000       0.00000000
C        8.17457433       9.77372333       4.99510614       0.00000000       0.00000000       0.00000000
C        9.38743909      12.75722249       4.31675823       0.00000000       0.00000000       0.00000000
C        6.49552229      19.63771595      22.56799052       0.00000000       0.00000000       0.00000000
C        5.06892379       4.77361594       4.29082024       0.00000000       0.00000000       0.00000000
C        8.40824609      20.14950250       3.94767839       0.00000000       0.00000000       0.00000000
C       20.96010702      21.02637900       0.74003399       0.00000000       0.00000000       0.00000000
C       11.12913564       8.53199011       3.84569719       0.00000000       0.00000000       0.00000000
C        1.01743619      22.25599962       1.90333401       0.00000000       0.00000000       0.00000000
C       16.99616253       6.22023266       1.72128491       0.00000000       0.00000000       0.00000000
C       17.96686520      21.90492601       2.09385741       0.00000000       0.00000000       0.00000000
C       16.00967649       6.57772639      17.64271979       0.00000000       0.00000000       0.00000000
C       22.61356448      14.64191870      21.11233313       0.00000000       0.00000000       0.00000000
C       17.13994732       1.64529223      20.24412215       0.00000000       0.00000000       0.00000000
C        3.62481600      10.50523864       1.88954122       0.00000000       0.00000000       0.00000000
C       17.11187493      14.39517339      20.98254790       0.00000000       0.00000000       0.00000000
C       15.11240684      10.47107361       2.06168101       0.00000000       0.00000000       0.00000000
C        7.84611311       4.57734480       3.18515191       0.00000000       0.00000000       0.00000000
C       22.80168968      10.89083299       6.08877196       0.00000000       0.00000000       0.00000000
C        5.60643506       4.28759946      22.05398171       0.00000000       0.00000000       0.00000000
C       10.11236563      13.50810900       1.36040410       0.00000000       0.00000000       0.00000000
C       17.03477977      21.39203177       5.29984777       0.00000000       0.00000000       0.00000000
C        9.48363431       0.16408713       3.03127744       0.00000000       0.00000000       0.00000000
C        1.80161971      20.35869702      19.59572649       0.00000000       0.00000000       0.00000000
C       21.90277476      11.29413315      21.79514142       0.00000000       0.00000000       0.00000000
C       21.92321823      21.65195349      20.63222744       0.00000000       0.00000000       0.00000000
C        7.51579052      10.22641749      20.76306126       0.00000000       0.00000000       0.00000000
C        5.64684261       6.44236862       1.46961854       0.00000000       0.00000000       0.00000000
C       20.08541577      13.21700184      19.82869514       0.00000000       0.00000000       0.00000000
C        9.53775364      20.80712870       0.86123923       0.00000000       0.00000000       0.00000000
C       18.77607339      14.78791328       2.37404300       0.00000000       0.00000000       0.00000000
C       16.17959289      21.57909123      20.94836861       0.00000000       0.00000000       0.00000000
C        1.43239385      15.09641147       2.47502926       0.00000000       0.00000000       0.00000000
C        6.79099147      13.94424862       5.50682136       0.00000000       0.00000000       0.00000000
C       17.68101442       4.63964059      19.48348791       0.00000000       0.00000000       0.00000000
C        4.56022365      21.45849711      20.64596682       0.00000000       0.00000000       0.00000000
C       15.75112930       9.38644379      19.63208215       0.00000000       0.00000000       0.00000000
C       10.18353970       5.54843141       4.58605440       0.00000000       0.00000000       0.00000000
C       20.66275406       2.78423831       5.51153710       0.00000000       0.00000000       0.00000000
C        3.75067226       0.44381878       3.08287187       0.00000000       0.00000000       0.00000000
C        5.76614336      16.66842161       0.63724069       0.00000000       0.00000000       0.00000000
C       20.87463945       8.10927952      22.65744336       0.00000000       0.00000000       0.00000000
C       12.39711402      21.92446643       2.20185346       0.00000000       0.00000000       0.00000000
C        1.72939525      12.47401091       0.10044767       0.00000000       0.00000000       0.00000000
C        0.74841145       9.46588974       0.68710696       0.00000000       0.00000000       0.00000000
C        0.00371220      22.38511634      17.72892343       0.00000000       0.00000000       0.00000000
C        5.30215028      22.89210313      17.63299274       0.00000000       0.00000000       0.00000000
C        3.51715217      20.91146250       0.82235218       0.00000000       0.00000000       0.00000000
C       10.41398721      15.76571926       3.64615641       0.00000000       0.00000000       0.00000000
C        9.37299497      16.14350664      19.30677195       0.00000000       0.00000000       0.00000000
C       21.72579755      19.21605118      18.41121993       0.00000000       0.00000000       0.00000000
C        5.46666967       8.72949081       3.75665585       0.00000000       0.00000000       0.00000000
C       17.97941636      14.13389810       5.64162326       0.00000000       0.00000000       0.00000000
C       20.88848056       3.35346998      18.01063833       0.00000000       0.00000000       0.00000000
C       15.16792629       2.46299429       5.65918741       0.00000000       0.00000000       0.00000000
C       12.10704343       9.55072973       1.03912694       0.00000000       0.00000000       0.00000000
C        3.79421224       6.00652084      20.30225607       0.00000000       0.00000000       0.00000000
C        2.59900075       0.02401082       6.17089648       0.00000000       0.00000000       0.00000000
C        3.87964969       4.04395665      17.93330796       0.00000000       0.00000000       0.00000000
C        6.54324661      17.35970330      20.38643063       0.00000000       0.00000000       0.00000000
C        7.66880423      20.34426719      19.63701825       0.00000000       0.00000000       0.00000000
C        9.46052653       3.83494477      17.99026073       0.00000000       0.00000000       0.00000000
C       13.27320582       1.96736232       1.24938376       0.00000000       0.00000000       0.00000000
C       19.88849772      20.23593228       4.16093873       0.00000000       0.00000000       0.00000000
C       21.85048048       5.77111984       4.49963044       0.00000000       0.00000000       0.00000000
C        8.39289618       5.36430351       0.19186889       0.00000000       0.00000000       0.00000000
C        6.44972473      11.77433815       3.05666009       0.00000000       0.00000000       0.00000000
C        4.71213916      18.04578826       5.54067918       0.00000000       0.00000000       0.00000000
C       21.79567886       8.92105769      19.61010476       0.00000000       0.00000000       0.00000000
C        4.55439873       3.54785639       1.99353171       0.00000000       0.00000000       0.00000000
C       18.44092863       7.74435304      18.56518885       0.00000000       0.00000000       0.00000000
C       18.67618459       4.44257689       3.81272473       0.00000000       0.00000000       0.00000000
C       22.59584591      16.84725466       0.44396195       0.00000000       0.00000000       0.00000000
C       14.11554076       7.54057707       2.75305280       0.00000000       0.00000000       0.00000000
C       15.18988399      16.29891382      19.27850485       0.00000000       0.00000000       0.00000000
C       21.04177190      10.80452134       1.93932558       0.00000000       0.00000000       0.00000000
C       10.46270582      21.36429736      20.71915148       0.00000000       0.00000000       0.00000000
C        2.95863696      11.00243206      17.68785432       0.00000000       0.00000000       0.00000000
Hf      12.16158643       6.48405882       3.63732390       0.00000000       0.00000000       0.00000000
Hf      18.95911169      15.27639280      19.81005664       0.00000000       0.00000000       0.00000000
Hf       6.37227691       8.79145506       6.19687489       0.00000000       0.00000000       0.00000000
Hf      17.94563142       6.73469245       3.75167632       0.00000000       0.00000000       0.00000000
Hf       1.08796791       6.66969323       3.61924237       0.00000000       0.00000000       0.00000000
Hf       3.71317816      13.43223605      22.16323835       0.00000000       0.00000000       0.00000000
Hf       9.43647549       2.69554457       0.33756773       0.00000000       0.00000000       0.00000000
Hf       2.46974762      13.06539831       2.05668057       0.00000000       0.00000000       0.00000000
Hf       3.39960344       1.27429978      20.97040391       0.00000000       0.00000000       0.00000000
Hf       6.64265256       6.79165487       3.57086563       0.00000000       0.00000000       0.00000000
Hf      11.30558075       3.25215764       4.60311742       0.00000000       0.00000000       0.00000000
Hf      11.46428464      19.29335555      21.03989522       0.00000000       0.00000000       0.00000000
Hf      17.72021671       9.92717301      18.50831061       0.00000000       0.00000000       0.00000000
Hf      19.63909904      22.81746910       1.16432368       0.00000000       0.00000000       0.00000000
Hf       9.48199302       5.57408051       2.14334632       0.00000000       0.00000000       0.00000000
Hf       4.01850258      20.05603276       5.48141823       0.00000000       0.00000000       0.00000000
Hf      14.97408671       5.35745613       2.54254692       0.00000000       0.00000000       0.00000000
Hf      10.47136944      16.24150142      21.34837788       0.00000000       0.00000000       0.00000000
Hf      12.67377900      16.77915878       2.84874364       0.00000000       0.00000000       0.00000000
Hf      21.58741975       0.83263483       5.70734420       0.00000000       0.00000000       0.00000000
Hf       5.62391152       7.24138360      19.24864755       0.00000000       0.00000000       0.00000000
Hf      14.07846372       4.67014556       5.64382130       0.00000000       0.00000000       0.00000000
Hf      20.66607001       8.81563095      17.55834230       0.00000000       0.00000000       0.00000000
Hf      20.42848670      20.94656401      18.35335202       0.00000000       0.00000000       0.00000000
Hf      15.80261532      10.70283163       4.15904967       0.00000000       0.00000000       0.00000000
Hf      15.24087478      18.29122681       3.94446821       0.00000000       0.00000000       0.00000000
Hf       0.61185145      19.87139178       4.55730797       0.00000000       0.00000000       0.00000000
Hf       1.27408253       9.83793322      18.71949125       0.00000000       0.00000000       0.00000000
Hf      16.97930523       1.12898970       2.50186838       0.00000000       0.00000000       0.00000000
Hf      10.44939256      18.66194717       0.84506601       0.00000000       0.00000000       0.00000000
Hf       3.70586295      16.10023506       1.31107194       0.00000000       0.00000000       0.00000000
Hf      12.26251741       1.74317996      22.11694065       0.00000000       0.00000000       0.00000000
Hf      12.10354292      22.15429973      19.71071964       0.00000000       0.00000000       0.00000000
Hf       0.53754498      14.84411749       0.38954319       0.00000000       0.00000000       0.00000000
Hf      12.15086182      10.17863202      18.99177506       0.00000000       0.00000000       0.00000000
Hf      11.61313545      16.00012153       5.71580752       0.00000000       0.00000000       0.00000000
Hf       5.54179864      17.25111082      18.27797987       0.00000000       0.00000000       0.00000000
Hf      18.36554696      12.44995520      20.74939400       0.00000000       0.00000000       0.00000000
Hf      13.10887742       9.42867600       3.04917732       0.00000000       0.00000000       0.00000000
Hf      18.90304240      17.74686605      22.21078924       0.00000000       0.00000000       0.00000000
Hf       7.55365010      20.03143265       1.72623599       0.00000000       0.00000000       0.00000000
Hf      22.06354030       8.33075195       1.83741623       0.00000000       0.00000000       0.00000000
Hf       0.87600068      22.47504038      19.93671759       0.00000000       0.00000000       0.00000000
Hf      16.24751116       8.63470791       1.73814128       0.00000000       0.00000000       0.00000000
Hf      15.79920318       5.89481637      22.60041895       0.00000000       0.00000000       0.00000000
Hf       7.56468867      17.52759988      22.44985936       0.00000000       0.00000000       0.00000000
Hf      17.98411068      19.35915552       5.25535101       0.00000000       0.00000000       0.00000000
Hf       9.99615246      10.59947349       4.11498301       0.00000000       0.00000000       0.00000000
Hf       4.56456689       4.01207845      20.08690730       0.00000000       0.00000000       0.00000000
Hf      15.26671262      21.28180598      18.81393134       0.00000000       0.00000000       0.00000000
Hf      19.99126042      10.25776639      22.65854441       0.00000000       0.00000000       0.00000000
Hf       0.39323106      17.21350961       2.56548326       0.00000000       0.00000000       0.00000000
Hf       4.80680373      16.59301672      21.43602796       0.00000000       0.00000000       0.00000000
Hf      10.46535144      20.89458772       2.95855279       0.00000000       0.00000000       0.00000000
Hf      11.58036422      13.58917355       3.79844394       0.00000000       0.00000000       0.00000000
Hf      22.84732204       7.03677540      19.41369288       0.00000000       0.00000000       0.00000000
Hf       6.67573540       4.30449772       1.35733879       0.00000000       0.00000000       0.00000000
Hf      14.38254645      20.53846588      21.80894214       0.00000000       0.00000000       0.00000000
Hf      20.75464376       3.20782633       0.70865413       0.00000000       0.00000000       0.00000000
Hf      20.42276842       5.09568061       2.98881657       0.00000000       0.00000000       0.00000000
Hf      17.62339047      11.55675442       1.31090963       0.00000000       0.00000000       0.00000000
Nb       5.48301659      19.45488350      20.67799498       0.00000000       0.00000000       0.00000000
Nb       4.00136033      11.16426759      19.82352127       0.00000000       0.00000000       0.00000000
Nb       2.99422716       2.48512296       3.54925283       0.00000000       0.00000000       0.00000000
Nb      16.95499240       3.60623976       4.60614518       0.00000000       0.00000000       0.00000000
Nb      19.22385630       5.69829986      18.61108176       0.00000000       0.00000000       0.00000000
Nb      15.16367759       2.96231692       0.47246271       0.00000000       0.00000000       0.00000000
Nb       0.87820413       2.11159002      21.89245493       0.00000000       0.00000000       0.00000000
Nb      15.27687004       7.81191308       4.61020202       0.00000000       0.00000000       0.00000000
Nb      19.06908646       7.19237358       0.87637203       0.00000000       0.00000000       0.00000000
Nb      19.06121583       4.80080400      21.81228248       0.00000000       0.00000000       0.00000000
Nb      22.76365821       9.07007860      21.59101329       0.00000000       0.00000000       0.00000000
Nb      16.59052127       9.62457132      21.57574742       0.00000000       0.00000000       0.00000000
Nb      16.17344543      14.16522254      18.87473115       0.00000000       0.00000000       0.00000000
Nb      21.64448108      16.53297939      21.07566904       0.00000000       0.00000000       0.00000000
Nb       1.58340221      20.10258899       1.53504533       0.00000000       0.00000000       0.00000000
Nb       7.58393384      22.12515289       3.92783995       0.00000000       0.00000000       0.00000000
Nb      12.26607568       3.99865320       1.17281829       0.00000000       0.00000000       0.00000000
Nb      13.43832598      19.91255855       1.92658784       0.00000000       0.00000000       0.00000000
Nb       6.67004511      18.99306736       4.60987947       0.00000000       0.00000000       0.00000000
Nb       4.73795272      18.78408064       0.47721727       0.00000000       0.00000000       0.00000000
Nb      22.47071402      16.22627993       5.40538737       0.00000000       0.00000000       0.00000000
Nb       9.55389388      17.76238828       3.98065237       0.00000000       0.00000000       0.00000000
Nb       3.80888538       3.26920498       0.20482966       0.00000000       0.00000000       0.00000000
Nb      18.11393686       8.63801780       6.22411780       0.00000000       0.00000000       0.00000000
Nb      22.60049980      19.52438840      20.35149921       0.00000000       0.00000000       0.00000000
Nb       8.38743303       6.05406846      18.12038349       0.00000000       0.00000000       0.00000000
Nb      17.89220980      16.85934355       2.51411113       0.00000000       0.00000000       0.00000000
Nb       9.42791195      20.19804993       5.99579097       0.00000000       0.00000000       0.00000000
Nb      19.26183398      12.98787973      17.71650890       0.00000000       0.00000000       0.00000000
Nb      20.62958293      18.28977463       3.91709597       0.00000000       0.00000000       0.00000000
Nb       8.63784557      14.81929363       4.38473205       0.00000000       0.00000000       0.00000000
Nb       1.67167897      15.50365904      20.35492182       0.00000000       0.00000000       0.00000000
Nb      17.83565212       4.24932130       1.60976682       0.00000000       0.00000000       0.00000000
Nb      22.82869987      22.06406272      22.54649941       0.00000000       0.00000000       0.00000000
Nb      14.10978090      10.43513265       0.25796734       0.00000000       0.00000000       0.00000000
Nb       3.76356284      21.31594251      18.71861104       0.00000000       0.00000000       0.00000000
Nb      18.87237730      19.81376998       1.98695108       0.00000000       0.00000000       0.00000000
Nb       4.75931019      13.16963116       6.35965003       0.00000000       0.00000000       0.00000000
Nb      19.63245673       4.59508367       5.90976700       0.00000000       0.00000000       0.00000000
Nb      21.62132610       5.91004262      22.45958295       0.00000000       0.00000000       0.00000000
Nb      10.43220225       0.26875332       5.15671787       0.00000000       0.00000000       0.00000000
Nb      12.03138205       8.50395358       5.79862249       0.00000000       0.00000000       0.00000000
Nb      13.16427346      22.07521370       4.24188936       0.00000000       0.00000000       0.00000000
Nb       8.43393762       8.11702404      20.36475797       0.00000000       0.00000000       0.00000000
Nb       5.40938223       9.15958439      21.55973911       0.00000000       0.00000000       0.00000000
Nb      11.51297197       0.96273412       2.38692415       0.00000000       0.00000000       0.00000000
Nb      19.54596230       2.47352091       3.53224413       0.00000000       0.00000000       0.00000000
Nb       3.49629398      18.22284799       3.50308994       0.00000000       0.00000000       0.00000000
Nb       5.34874641      11.46760857       0.93462080       0.00000000       0.00000000       0.00000000
Nb       7.20003458       5.36767904      20.96575638       0.00000000       0.00000000       0.00000000
Nb      20.11405492      20.99024602      21.57094150       0.00000000       0.00000000       0.00000000
Nb      13.10044755       7.38044329       0.83050466       0.00000000       0.00000000       0.00000000
Ta       2.61100012      15.45433236       4.20243572       0.00000000       0.00000000       0.00000000
Ta      16.56260111       1.21905501      18.25633949       0.00000000       0.00000000       0.00000000
Ta       9.57464693      15.67336142       1.56897348       0.00000000       0.00000000       0.00000000
Ta      20.81546336       0.81741072      20.90544821       0.00000000       0.00000000       0.00000000
Ta      20.79786488      20.57114067       6.06684232       0.00000000       0.00000000       0.00000000
Ta       9.46378924      21.10578128      18.56694026       0.00000000       0.00000000       0.00000000
Ta      13.61822851      17.21946772      22.78878794       0.00000000       0.00000000       0.00000000
Ta      12.04579615      12.38126953      21.20393230       0.00000000       0.00000000       0.00000000
Ta      22.66758713      13.87425958       3.51528265       0.00000000       0.00000000       0.00000000
Ta      13.12552511      13.21336415      18.26377177       0.00000000       0.00000000       0.00000000
Ta       4.41990840      21.42116564       2.81162391       0.00000000       0.00000000       0.00000000
Ta      17.03994109      16.09469172       5.47778640       0.00000000       0.00000000       0.00000000
Ta      19.68750074      18.25910589      18.98681172       0.00000000       0.00000000       0.00000000
Ta      10.21575456       8.54928966       1.73200564       0.00000000       0.00000000       0.00000000
Ta       7.54135159      13.22745038      17.94194624       0.00000000       0.00000000       0.00000000
Ta       8.31628603      12.53279124       2.20630190       0.00000000       0.00000000       0.00000000
Ta      16.98456333      21.54423842       0.20023646       0.00000000       0.00000000       0.00000000
Ta       7.76499651      12.10313931       5.61430738       0.00000000       0.00000000       0.00000000
Ta      18.13804203       1.98710401      22.19032697       0.00000000       0.00000000       0.00000000
Ta       8.22156215       4.79833989       5.16645277       0.00000000       0.00000000       0.00000000
Ta      18.18075094      22.29790730      20.09964807       0.00000000       0.00000000       0.00000000
Ta       7.38299604       7.42977620       0.39387465       0.00000000       0.00000000       0.00000000
Ta       2.99183983       6.07378178      17.85826477       0.00000000       0.00000000       0.00000000
Ta       4.71088581       1.96206695      17.76065891       0.00000000       0.00000000       0.00000000
Ta      11.68545922      21.68108455       0.20928913       0.00000000       0.00000000       0.00000000
Ta      10.98448143      11.57376665       1.01174239       0.00000000       0.00000000       0.00000000
Ta      14.75062860       9.30907403      17.75852088       0.00000000       0.00000000       0.00000000
Ta       2.16690085       3.26754030      18.80816667       0.00000000       0.00000000       0.00000000
Ta      14.95110481       0.78022924      20.88923446       0.00000000       0.00000000       0.00000000
Ta       7.73469149       1.43112904       6.15056217       0.00000000       0.00000000       0.00000000
Ta      20.14087585      12.66999745       2.40166326       0.00000000       0.00000000       0.00000000
Ta      17.93265074      14.69405592       0.07902599       0.00000000       0.00000000       0.00000000
Ta       8.09266907      10.10482856      22.87141196       0.00000000       0.00000000       0.00000000
Ta      19.52083615       9.75275898       3.15653401       0.00000000       0.00000000       0.00000000
Ta       1.27243455      17.89032060      22.39625247       0.00000000       0.00000000       0.00000000
Ta       2.44300273      18.22701500      19.51540763       0.00000000       0.00000000       0.00000000
Ta       7.53356662      15.05748705      20.28017366       0.00000000       0.00000000       0.00000000
Ta      14.25108916      12.78402296       2.19843641       0.00000000       0.00000000       0.00000000
Ta       3.62495805       7.92657308       4.59636638       0.00000000       0.00000000       0.00000000
Ta      22.02488216       1.45495547      18.00761107       0.00000000       0.00000000       0.00000000
Ta       4.68807972      14.30178519      19.02921146       0.00000000       0.00000000       0.00000000
Ta      13.98490690       8.22598933      20.66604799       0.00000000       0.00000000       0.00000000
Ta      22.16703858      21.67281267       2.40544308       0.00000000       0.00000000       0.00000000
Ta       5.26843678      13.51288285       3.26606230       0.00000000       0.00000000       0.00000000
Ta      11.40273018      17.26036280      18.33310340       0.00000000       0.00000000       0.00000000
Ta       0.90193911      11.77238348      21.21662755       0.00000000       0.00000000       0.00000000
Ta      14.43930566      14.91364281       4.73214058       0.00000000       0.00000000       0.00000000
Ta      13.13911582       2.99327737      19.04264082       0.00000000       0.00000000       0.00000000
Ta       7.27827373       9.62201112       2.95155847       0.00000000       0.00000000       0.00000000
Ta      16.18460702       3.55767653      20.33978536       0.00000000       0.00000000       0.00000000
Ta       6.65928449      10.02844413      18.35856572       0.00000000       0.00000000       0.00000000
Ta      22.59105776       5.98137126       6.38766246       0.00000000       0.00000000       0.00000000
Ta      16.22845456      16.32322467      21.17196823       0.00000000       0.00000000       0.00000000
Ta       0.07948029       1.50466877       2.20184736       0.00000000       0.00000000       0.00000000
Ta      14.29177124      22.89099111       1.34471747       0.00000000       0.00000000       0.00000000
Ta       9.43488882       0.33912440      20.83407584       0.00000000       0.00000000       0.00000000
Ta       2.70169932      20.46946459      21.72292758       0.00000000       0.00000000       0.00000000
Ta       1.53686970       4.91707449      21.42204992       0.00000000       0.00000000       0.00000000
Ta      11.28024461       9.21988273      21.98465781       0.00000000       0.00000000       0.00000000
Ta      11.40000381       6.92268509      19.12855659       0.00000000       0.00000000       0.00000000
Ta       6.41380864      12.13864021      21.19513258       0.00000000       0.00000000       0.00000000
Ti       1.74012604      22.80966408       4.01476058       0.00000000       0.00000000       0.00000000
Ti      16.06719400       0.39271061       5.42950916       0.00000000       0.00000000       0.00000000
Ti      16.70269157       6.84375369      19.71220429       0.00000000       0.00000000       0.00000000
Ti       2.63012888       4.87723324       5.61376838       0.00000000       0.00000000       0.00000000
Ti       0.60372745      18.98296092       5.35544887       0.00000000       0.00000000       0.00000000
Ti       4.74569336       6.22094576      22.35335793       0.00000000       0.00000000       0.00000000
Ti      21.20855124      21.76043229      18.76201988       0.00000000       0.00000000       0.00000000
Ti       6.53772947      16.79752069       2.74401637       0.00000000       0.00000000       0.00000000
Ti       8.65362874      22.78438246       0.86310493       0.00000000       0.00000000       0.00000000
Ti       9.51305942       3.61739764      22.47882709       0.00000000       0.00000000       0.00000000
Ti      15.55083776      15.56882511       1.69834088       0.00000000       0.00000000       0.00000000
Ti       5.72029703       3.05437736       4.97785556       0.00000000       0.00000000       0.00000000
Ti      22.85074381      11.62679219       1.16478049       0.00000000       0.00000000       0.00000000
Ti       5.80366099      15.82622644       5.57936968       0.00000000       0.00000000       0.00000000
Ti       2.07706788      11.86623290       5.28235502       0.00000000       0.00000000       0.00000000
Ti      21.91462736       6.45415475      18.90605513       0.00000000       0.00000000       0.00000000
Ti      10.25995704       4.31590499      19.92572002       0.00000000       0.00000000       0.00000000
Ti      20.99618605      13.38834859      21.89024882       0.00000000       0.00000000       0.00000000
Ti      17.09891958      13.83785372       3.44337613       0.00000000       0.00000000       0.00000000
Ti       9.41854407      11.22827334      19.93745130       0.00000000       0.00000000       0.00000000
Ti      21.78353233      14.29458099      19.04018890       0.00000000       0.00000000       0.00000000
Ti       8.98850142      13.19766553      22.15962178       0.00000000       0.00000000       0.00000000
Ti       8.69305484       2.49440078       3.12447864       0.00000000       0.00000000       0.00000000
Ti       2.93052043      10.34576942       0.01987729       0.00000000       0.00000000       0.00000000
Ti      22.22323823       1.07423635       4.73622969       0.00000000       0.00000000       0.00000000
Ti       4.65729932       8.32285941       1.50016228       0.00000000       0.00000000       0.00000000
Ti      20.93279269       7.66716123       4.79034765       0.00000000       0.00000000       0.00000000
Ti      15.32634770      11.76812305      19.86601454       0.00000000       0.00000000       0.00000000
Ti       9.16219645       7.63752052       4.76944598       0.00000000       0.00000000       0.00000000
Ti      16.25813168      18.64113315       0.58238258       0.00000000       0.00000000       0.00000000
Ti       3.90528593       5.56852043       2.42183339       0.00000000       0.00000000       0.00000000
Ti      15.29027036      13.57270440      22.25949465       0.00000000       0.00000000       0.00000000
Ti       6.55516011      22.24123131      19.77185847       0.00000000       0.00000000       0.00000000
Ti       6.77047036      20.00230657      17.75198556       0.00000000       0.00000000       0.00000000
Ti       4.01220670       0.56000478      20.26381495       0.00000000       0.00000000       0.00000000
Ti      10.04040295       6.35136729      22.25225506       0.00000000       0.00000000       0.00000000
Zr       0.08744858       3.79684027       4.60229747       0.00000000       0.00000000       0.00000000
Zr       0.89105053      12.91190747      20.74276196       0.00000000       0.00000000       0.00000000
Zr      13.17667537      11.62799071       5.50474530       0.00000000       0.00000000       0.00000000
Zr      13.18616374       5.27016847      21.40079538       0.00000000       0.00000000       0.00000000
Zr       5.67968807       1.50161048       2.20130063       0.00000000       0.00000000       0.00000000
Zr      13.92324361      18.41874786      19.45394170       0.00000000       0.00000000       0.00000000
Zr       0.98743844       4.47542346       1.53382038       0.00000000       0.00000000       0.00000000
Zr      19.96479909      15.20262620       4.66338607       0.00000000       0.00000000       0.00000000
Zr       1.08948835       8.96517482       5.94692220       0.00000000       0.00000000       0.00000000
Zr      12.26347755      14.32460029       0.69084518       0.00000000       0.00000000       0.00000000
Zr      14.06600347       2.35909942       3.46669689       0.00000000       0.00000000       0.00000000
Zr      21.80297064      18.95995371       0.42942153       0.00000000       0.00000000       0.00000000
Zr       2.80481905       8.06744985      20.55146525       0.00000000       0.00000000       0.00000000
Zr       6.59805174      14.39232170       0.66639885       0.00000000       0.00000000       0.00000000
Zr      13.31971080      15.24797278      20.42706568       0.00000000       0.00000000       0.00000000
Zr      15.07171918      20.42266759       6.18164222       0.00000000       0.00000000       0.00000000
Zr      18.94307168      11.99545943       5.35606112       0.00000000       0.00000000       0.00000000
Zr       7.64134890       2.87380570      18.98627193       0.00000000       0.00000000       0.00000000
Zr      16.89758649      17.29786595      17.96225983       0.00000000       0.00000000       0.00000000
Zr      15.84141552      20.97750959       3.26598462       0.00000000       0.00000000       0.00000000
Zr       4.62562644      10.84982718       4.31350762       0.00000000       0.00000000       0.00000000
Zr      12.43146350      19.14836149       5.32176590       0.00000000       0.00000000       0.00000000
Zr       8.48022336      18.15085752      19.47070205       0.00000000       0.00000000       0.00000000
Zr      18.95877513      22.21622227       4.42579646       0.00000000       0.00000000       0.00000000
Zr      21.93218874      10.57739355       4.24126211       0.00000000       0.00000000       0.00000000
Zr       2.64554009       0.19552417       1.03102187       0.00000000       0.00000000       0.00000000
Zr      20.50082822      15.93321626       1.45143180       0.00000000       0.00000000       0.00000000
Zr       5.44260754      21.81448137      22.65071182       0.00000000       0.00000000       0.00000000
Zr       4.54150882       0.63049714       5.26166385       0.00000000       0.00000000       0.00000000
Zr      14.11543901       5.82311816      18.40562035       0.00000000       0.00000000       0.00000000
Zr      21.74165880      12.87472491       6.38055768       0.00000000       0.00000000       0.00000000
Zr       2.18077003      13.09444415      17.80008066       0.00000000       0.00000000       0.00000000
Zr      22.57718760      17.12416657      17.94230041       0.00000000       0.00000000       0.00000000
Zr      21.85450102       3.60090512      20.40339464       0.00000000       0.00000000       0.00000000
Zr      10.42935330       1.62985329      17.86198668       0.00000000       0.00000000       0.00000000
Zr      21.15065295      10.92317689      19.44149219       0.00000000       0.00000000       0.00000000
Zr       1.97195923       7.47633882       0.33065744       0.00000000       0.00000000       0.00000000
Zr      19.59878579       7.95878419      20.47996622       0.00000000       0.00000000       0.00000000
Zr       8.62116973      20.64702970      21.59397910       0.00000000       0.00000000       0.00000000
Zr       6.72521109       2.27440798      21.88066705       0.00000000       0.00000000       0.00000000
Zr      16.85049020      19.19884419      20.56034210       0.00000000       0.00000000       0.00000000
Zr      19.05789739       2.42405879      19.07973687       0.00000000       0.00000000       0.00000000
Zr       9.99565217      14.01473939      19.25843602       0.00000000       0.00000000       0.00000000
Zr       1.65137890       9.82237918       2.75793425       0.00000000       0.00000000       0.00000000
C       10.41958823      10.30174032      12.46116400       0.00000000       0.00000000       0.00000000
C       21.19111937      12.59681692      14.85752955       0.00000000       0.00000000       0.00000000
C        5.74033716      18.49701870      17.23198438       0.00000000       0.00000000       0.00000000
C       22.37327062      11.42576814      12.80142692       0.00000000       0.00000000       0.00000000
C       18.00787509      19.84005964       8.37153050       0.00000000       0.00000000       0.00000000
C       15.03127618      21.74833510      13.14789253       0.00000000       0.00000000       0.00000000
C       22.89848219      16.98401581      15.45332390       0.00000000       0.00000000       0.00000000
C       21.09365663      22.24661322       7.22076759       0.00000000       0.00000000       0.00000000
C       10.02137245       3.32633419      14.50253241       0.00000000       0.00000000       0.00000000
C        6.97119206      18.28398601      10.95801123       0.00000000       0.00000000       0.00000000
C       22.75317437       8.51292581      16.66743162       0.00000000       0.00000000       0.00000000
C        1.77973948      15.22655203      10.69110607       0.00000000       0.00000000       0.00000000
C        2.29857112      17.52921964       6.79657908       0.00000000       0.00000000       0.00000000
C       17.31109023      10.48476557      13.98190239       0.00000000       0.00000000       0.00000000
C       16.23139590      12.86546552       8.35402655       0.00000000       0.00000000       0.00000000
C       19.01709609       5.74114670      15.75171129       0.00000000       0.00000000       0.00000000
C        3.20205241      20.03534853       6.38803977       0.00000000       0.00000000       0.00000000
C       10.10171421       2.71366863       8.41313250       0.00000000       0.00000000       0.00000000
C        0.48471440      11.68141590      12.26482998       0.00000000       0.00000000       0.00000000
C       19.24068275      22.82848934      12.20471070       0.00000000       0.00000000       0.00000000
C        4.70424026       9.46171764      10.24539868       0.00000000       0.00000000       0.00000000
C        0.94957900       7.69845949       9.40392904       0.00000000       0.00000000       0.00000000
C       12.64738274      12.91114084      16.49316119       0.00000000       0.00000000       0.00000000
C        8.13280042       1.87089043       7.50791633       0.00000000       0.00000000       0.00000000
C       16.72214353      20.97383098      15.75309320       0.00000000       0.00000000       0.00000000
C       21.07630325       8.06462985      13.99634346       0.00000000       0.00000000       0.00000000
C       16.10428597       2.36502318       9.60319501       0.00000000       0.00000000       0.00000000
C       18.73123935       0.95132994       9.31664309       0.00000000       0.00000000       0.00000000
C        8.51494663       1.12919613      16.45855536       0.00000000       0.00000000       0.00000000
Ti       4.25077651      15.64021727      11.28389734       0.00000000       0.00000000       0.00000000
Ti       9.18890920      19.33048211      11.87455357       0.00000000       0.00000000       0.00000000
C       18.37243597       3.12717626      11.42982413       0.00000000       0.00000000       0.00000000
C       14.99247881      10.01879930       6.60524274       0.00000000       0.00000000       0.00000000
C        0.67216053       0.38345967      10.18581130       0.00000000       0.00000000       0.00000000
C       12.97091460       7.72146638       6.94855190       0.00000000       0.00000000       0.00000000
C        4.06976158       3.87761254      14.08837626       0.00000000       0.00000000       0.00000000
C        7.90792952       5.01119584       9.28162725       0.00000000       0.00000000       0.00000000
C       22.55335364       1.61156789      15.62357469       0.00000000       0.00000000       0.00000000
C        5.92656871       9.92809248       7.13993171       0.00000000       0.00000000       0.00000000
C       12.27372829      17.11593896      12.11441749       0.00000000       0.00000000       0.00000000
C        4.46362614       6.98776323       8.85201558       0.00000000       0.00000000       0.00000000
C        6.94424302      17.59456884       7.36732953       0.00000000       0.00000000       0.00000000
C       22.42020218       8.52201727       8.96497167       0.00000000       0.00000000       0.00000000
C        3.86654503       0.56740678      14.08196849       0.00000000       0.00000000       0.00000000
C        9.89448130      20.03215903       7.92174605       0.00000000       0.00000000       0.00000000
C        1.20111902       2.45480752      14.15288545       0.00000000       0.00000000       0.00000000
C       19.99470987      16.82996613      16.45664743       0.00000000       0.00000000       0.00000000
C        6.65881327       4.11437818      12.92622950       0.00000000       0.00000000       0.00000000
C        9.31176122      16.18930600      13.51875996       0.00000000       0.00000000       0.00000000
C       11.17412620       2.69172509       9.10879049       0.00000000       0.00000000       0.00000000
C       19.04520172      15.99501938       7.23784919       0.00000000       0.00000000       0.00000000
C       21.40233968       8.90531828       9.93137455       0.00000000       0.00000000       0.00000000
C       22.65004548      15.23948064      12.71733325       0.00000000       0.00000000       0.00000000
C       12.53580027      14.54977254      12.58684471       0.00000000       0.00000000       0.00000000
C        5.10665546      13.62736975      10.48680085       0.00000000       0.00000000       0.00000000
C        5.66753011       9.52161899      15.00019366       0.00000000       0.00000000       0.00000000
C       20.26746182      19.81421023      15.84316904       0.00000000       0.00000000       0.00000000
C        9.50516068      11.87797617      14.64096213       0.00000000       0.00000000       0.00000000
C        9.83402635      20.67581993       9.18843054       0.00000000       0.00000000       0.00000000
C        5.02797550       0.39726235       9.71110344       0.00000000       0.00000000       0.00000000
C       16.98774270       9.25505231       9.59362183       0.00000000       0.00000000       0.00000000
C       21.67810825       0.39263653      11.57907859       0.00000000       0.00000000       0.00000000
C        4.13727411       1.28023487       9.44560653       0.00000000       0.00000000       0.00000000
C       16.78039425       4.88664425      12.96521579       0.00000000       0.00000000       0.00000000
C       21.10507268       6.64051338       7.16848494       0.00000000       0.00000000       0.00000000
C       22.27501150      11.06950228      11.57332490       0.00000000       0.00000000       0.00000000
C       11.37073210      17.40341052       6.53475703       0.00000000       0.00000000       0.00000000
C        8.26066341      11.10542795      10.78132982       0.00000000       0.00000000       0.00000000
C       13.13863642      18.94876847       8.58975936       0.00000000       0.00000000       0.00000000
C       15.57344537      15.17077830      15.07806069       0.00000000       0.00000000       0.00000000
C        7.71971421       8.19798270      13.70374983       0.00000000       0.00000000       0.00000000
C        6.89097377      15.63046395      17.11169893       0.00000000       0.00000000       0.00000000
C       11.90805165      21.50516427      11.62477869       0.00000000       0.00000000       0.00000000
C       18.38991890       7.49049122      11.95850204       0.00000000       0.00000000       0.00000000
C        6.78694509       3.91857009      10.17370539       0.00000000       0.00000000       0.00000000
C       20.16107602      16.46473864      10.00321035       0.00000000       0.00000000       0.00000000
C       20.54436204      20.39523607      14.48175577       0.00000000       0.00000000       0.00000000
C       16.01850142       9.96266232      10.39648472       0.00000000       0.00000000       0.00000000
C       11.03157577       5.84994183       8.52757041       0.00000000       0.00000000       0.00000000
C       22.03535374      18.97426780       7.11471312       0.00000000       0.00000000       0.00000000
C       22.72273838      16.09105748       7.96721122       0.00000000       0.00000000       0.00000000
C       17.61103523       6.14783578      15.94209944       0.00000000       0.00000000       0.00000000
C        5.61506876      22.33771977      16.38529953       0.00000000       0.00000000       0.00000000
C       22.05864048       3.58963194      13.29529036       0.00000000       0.00000000       0.00000000
C       16.75568879      16.25943133       9.42644946       0.00000000       0.00000000       0.00000000
C       16.37134182      19.83864695      10.26499458       0.00000000       0.00000000       0.00000000
C        7.44646246       1.74967591      11.89411139       0.00000000       0.00000000       0.00000000
C        3.84302655       0.12201255      12.38933342       0.00000000       0.00000000       0.00000000
C        6.41237012      11.80950219      12.46790860       0.00000000       0.00000000       0.00000000
C        1.55653777      22.81724111      11.49891494       0.00000000       0.00000000       0.00000000
C       12.28322819      21.47476594       7.06303007       0.00000000       0.00000000       0.00000000
C       18.93462119      17.85471908       6.82293758       0.00000000       0.00000000       0.00000000
C       14.32970364      19.10728363      16.04736427       0.00000000       0.00000000       0.00000000
C        3.73280512      18.01570428      14.42581046       0.00000000       0.00000000       0.00000000
C        8.44562173       1.08835923      11.74930979       0.00000000       0.00000000       0.00000000
C        1.68751691       4.90039227      17.07824734       0.00000000       0.00000000       0.00000000
C       12.98177191      18.30264877      15.72150491       0.00000000       0.00000000       0.00000000
C       16.96072407      21.58803237      13.84568937       0.00000000       0.00000000       0.00000000
C       19.13629660       7.41544492       8.39564174       0.00000000       0.00000000       0.00000000
C       19.48429726      16.81879218      14.98941529       0.00000000       0.00000000       0.00000000
C       12.48164193      16.13296628      13.16080187       0.00000000       0.00000000       0.00000000
C       14.34542692       9.81954146      10.15037777       0.00000000       0.00000000       0.00000000
C        7.91471617       7.50755306      10.85832104       0.00000000       0.00000000       0.00000000
C        2.23711675      11.13617647      12.09169289       0.00000000       0.00000000       0.00000000
C       18.79359600      11.96677323      11.20431211       0.00000000       0.00000000       0.00000000
C        8.46218716      18.42764451      14.90523107       0.00000000       0.00000000       0.00000000
C        3.31851201       6.87727708      11.95388392       0.00000000       0.00000000       0.00000000
C        3.70793918      12.67211468      14.84700738       0.00000000       0.00000000       0.00000000
C       11.10984985       7.34766403      10.16212000       0.00000000       0.00000000       0.00000000
C       13.99970571       4.68486522       9.93277326       0.00000000       0.00000000       0.00000000
C        3.41285837       6.51406278       8.23526697       0.00000000       0.00000000       0.00000000
C        9.19136558      13.09759949       8.02948065       0.00000000       0.00000000       0.00000000
C        1.55240690      21.30745930      14.95468232       0.00000000       0.00000000       0.00000000
C        8.78200206      17.27153589      14.19869853       0.00000000       0.00000000       0.00000000
C       10.48391901       4.96907126      12.18520725       0.00000000       0.00000000       0.00000000
C       10.77771043      13.55908543       8.80543312       0.00000000       0.00000000       0.00000000
C       14.92927950       9.66443859      14.33037863       0.00000000       0.00000000       0.00000000
C       12.34659888      18.11708141      11.15794041       0.00000000       0.00000000       0.00000000
C        0.62210334       7.70433018       7.78066381       0.00000000       0.00000000       0.00000000
C        2.00121293      13.23083147       8.05462501       0.00000000       0.00000000       0.00000000
C        2.52853463      12.23762473       7.55240179       0.00000000       0.00000000       0.00000000
C        0.32925569       6.78141279      14.33709799       0.00000000       0.00000000       0.00000000
C       19.27087274       6.60856417      12.25419842       0.00000000       0.00000000       0.00000000
C        0.67808562       5.92051987      10.20771339       0.00000000       0.00000000       0.00000000
C        0.41033798      14.46159569      14.35098065       0.00000000       0.00000000       0.00000000
C        6.95414718      21.31149348      14.50853672       0.00000000       0.00000000       0.00000000
C       16.29985518       5.76974590       9.41302141       0.00000000       0.00000000       0.00000000
C        3.43087528      22.23025757       9.01363893       0.00000000       0.00000000       0.00000000
C        3.80496305      20.88300128      12.33362496       0.00000000       0.00000000       0.00000000
C       17.11917576      16.59869271      13.19134739       0.00000000       0.00000000       0.00000000
C        3.71708991      15.33452496      15.45650937       0.00000000       0.00000000       0.00000000
C       10.74490963      14.46476780       9.92177788       0.00000000       0.00000000       0.00000000
C       11.45251422      11.45251422      11.96281572       0.00000000       0.00000000       0.00000000
C       13.53573814      22.60230976       9.50464666       0.00000000       0.00000000       0.00000000
C       10.51612540      21.52859675      14.47444476       0.00000000       0.00000000       0.00000000
C       14.27486058       1.81260482      15.06164225       0.00000000       0.00000000       0.00000000
C       10.74597401       5.73418862       7.21947675       0.00000000       0.00000000       0.00000000
C        4.14007302       6.82177711      15.91340681       0.00000000       0.00000000       0.00000000
C       12.10970657       8.40840982      16.63542530       0.00000000       0.00000000       0.00000000
C       15.64907783      16.09680089      13.97212180       0.00000000       0.00000000       0.00000000
C       14.04374799      14.94102295       8.07073289       0.00000000       0.00000000       0.00000000
C       17.32539124      16.55887689      16.33693388       0.00000000       0.00000000       0.00000000
C        4.31708827      21.95511491      11.81580799       0.00000000       0.00000000       0.00000000
C       18.73178533      13.53830267      13.87239789       0.00000000       0.00000000       0.00000000
C       20.04887949      15.26661345      10.60394174       0.00000000       0.00000000       0.00000000
C        5.99097005      20.70153203       7.83142772       0.00000000       0.00000000       0.00000000
C       21.70097341      20.71891888      11.77773380       0.00000000       0.00000000       0.00000000
C        5.95166726       8.40360000      14.07403223       0.00000000       0.00000000       0.00000000
C       18.87900313      10.18175643       8.42914699       0.00000000       0.00000000       0.00000000
C       17.88624572       4.36366320       6.54668813       0.00000000       0.00000000       0.00000000
C       16.84307938      20.63965178       8.93268545       0.00000000       0.00000000       0.00000000
C        1.91695190       9.25400780      17.11247891       0.00000000       0.00000000       0.00000000
C       11.64731015      13.40533079      17.24594709       0.00000000       0.00000000       0.00000000
C       13.86459924       2.24410448       7.10738115       0.00000000       0.00000000       0.00000000
C       17.44658378      18.18318134      16.38358537       0.00000000       0.00000000       0.00000000
C       16.42398994       1.78859187      16.24092285       0.00000000       0.00000000       0.00000000
C        0.07709109      16.93819387      16.79712134       0.00000000       0.00000000       0.00000000
C       20.32561998       1.58347379      14.91902423       0.00000000       0.00000000       0.00000000
C        9.86376626       4.29136099      15.54717338       0.00000000       0.00000000       0.00000000
C       13.42393590      14.78990560       6.86113459       0.00000000       0.00000000       0.00000000
C       21.87286776      12.18858189      16.06583279       0.00000000       0.00000000       0.00000000
C       11.48825706       2.06630287      10.35110673       0.00000000       0.00000000       0.00000000
C       22.37063889       5.19847538      16.13362871       0.00000000       0.00000000       0.00000000
C       11.60038258       8.93855396      15.35729467       0.00000000       0.00000000       0.00000000
C       15.93300849      10.56180874      13.56578234       0.00000000       0.00000000       0.00000000
C        2.73663012       4.49548063      13.81280161       0.00000000       0.00000000       0.00000000
C        7.85724709      18.91774643      11.72816035       0.00000000       0.00000000       0.00000000
C        3.59962506       3.67857127       7.78226094       0.00000000       0.00000000       0.00000000
C        7.79566208       7.28733374      15.13386826       0.00000000       0.00000000       0.00000000
C       15.86096943       1.64298097      11.00612755       0.00000000       0.00000000       0.00000000
C       18.79241599       4.06042365      17.13363992       0.00000000       0.00000000       0.00000000
C       22.69486889      15.95937160      16.47827196       0.00000000       0.00000000       0.00000000
C       21.39363549       3.80227774       7.17881667       0.00000000       0.00000000       0.00000000
Hf      13.53944595      22.64587461      14.01701814       0.00000000       0.00000000       0.00000000
Hf      15.15305634       8.84712988      12.36292645       0.00000000       0.00000000       0.00000000
Hf       4.38946213      11.24462734      13.62892120       0.00000000       0.00000000       0.00000000
Hf       5.06701996      12.93157229       7.92901542       0.00000000       0.00000000       0.00000000
Hf       0.10683366      17.50737340       7.31344991       0.00000000       0.00000000       0.00000000
Hf      14.99359496       5.80684562      17.19542897       0.00000000       0.00000000       0.00000000
Hf       0.82156152      20.44683738      17.36268563       0.00000000       0.00000000       0.00000000
Hf      13.16166699      10.65407708      16.07999889       0.00000000       0.00000000       0.00000000
Hf       2.02251984       2.39276857       9.31349474       0.00000000       0.00000000       0.00000000
Hf      14.24108764      11.49911213       8.03855995       0.00000000       0.00000000       0.00000000
Hf      13.86533987      20.57238428      11.40620481       0.00000000       0.00000000       0.00000000
Hf       9.54279672       8.37790282      11.51911148       0.00000000       0.00000000       0.00000000
Hf      10.08004804       9.37568243      16.76504670       0.00000000       0.00000000       0.00000000
Hf      21.20350378       6.40947130       9.16569739       0.00000000       0.00000000       0.00000000
Hf      10.37032862       6.64050592      13.97128926       0.00000000       0.00000000       0.00000000
Hf       3.27095720       5.77585715      10.42356329       0.00000000       0.00000000       0.00000000
Hf      21.83489172       1.24873442       6.80168117       0.00000000       0.00000000       0.00000000
Hf      18.18118869      19.43617161      15.01428505       0.00000000       0.00000000       0.00000000
Hf      16.75017871       4.02038102      14.82598855       0.00000000       0.00000000       0.00000000
Hf      16.33548146      18.09012822      11.64776019       0.00000000       0.00000000       0.00000000
Hf       4.24904661      18.11143145      11.88793344       0.00000000       0.00000000       0.00000000
Hf      14.20594686      17.26307974       7.65268306       0.00000000       0.00000000       0.00000000
Hf      20.54561197      16.88500985      12.28016333       0.00000000       0.00000000       0.00000000
Hf       6.47224434       9.13758216      11.90600577       0.00000000       0.00000000       0.00000000
Hf      10.08838988      13.87420479      14.07831580       0.00000000       0.00000000       0.00000000
Hf       9.48352566      15.92424815      11.26984508       0.00000000       0.00000000       0.00000000
Hf       5.84696865       3.28245732       7.96872660       0.00000000       0.00000000       0.00000000
Hf      11.88440011       0.42021381      15.25243664       0.00000000       0.00000000       0.00000000
Hf       4.49329571      11.33868373      10.77552742       0.00000000       0.00000000       0.00000000
Hf      11.39566418      20.52887664      16.22677318       0.00000000       0.00000000       0.00000000
Nb       2.38610868      20.13926697      13.77135629       0.00000000       0.00000000       0.00000000
Nb      19.15078680       8.65493007       9.67493827       0.00000000       0.00000000       0.00000000
Nb       3.59639047       9.05815364      15.42706261       0.00000000       0.00000000       0.00000000
Nb       6.64506187       0.44842559      16.39806466       0.00000000       0.00000000       0.00000000
Nb       3.37534073      22.15928705       6.80304000       0.00000000       0.00000000       0.00000000
Nb      16.83270280      17.26996650       6.53712000       0.00000000       0.00000000       0.00000000
Nb       7.04702576      13.34330010      10.32817923       0.00000000       0.00000000       0.00000000
Nb      21.22151627       3.55288403      15.07103075       0.00000000       0.00000000       0.00000000
Nb       8.47358019      20.08963341      13.90253539       0.00000000       0.00000000       0.00000000
Nb      17.32446709       5.16846027      11.11131751       0.00000000       0.00000000       0.00000000
Nb      10.12031332      22.03052431      12.16591318       0.00000000       0.00000000       0.00000000
Nb      21.66588265      10.62475239      14.81611182       0.00000000       0.00000000       0.00000000
Nb      15.09883483      15.02016169       9.88347428       0.00000000       0.00000000       0.00000000
Nb      17.07924283      14.53863741       7.81575437       0.00000000       0.00000000       0.00000000
Nb       4.18370237       6.19294288      13.69499939       0.00000000       0.00000000       0.00000000
Nb      20.10621927      12.40898979      12.92564433       0.00000000       0.00000000       0.00000000
Nb      10.13614634      15.94405792      17.41178620       0.00000000       0.00000000       0.00000000
Nb       7.46381716       5.35010062      14.14597317       0.00000000       0.00000000       0.00000000
Nb       8.11729321      15.40335101      15.44125166       0.00000000       0.00000000       0.00000000
Nb       2.08853117      11.71290178      16.72181161       0.00000000       0.00000000       0.00000000
Nb      12.77072565      12.74605924      10.15731560       0.00000000       0.00000000       0.00000000
Nb       1.54414998      12.70846760      10.85514687       0.00000000       0.00000000       0.00000000
Nb      12.29842198       9.44208554      12.98444774       0.00000000       0.00000000       0.00000000
Nb      11.41375246      22.89044306       8.24746336       0.00000000       0.00000000       0.00000000
Nb       5.54427467      18.81292540      15.25458648       0.00000000       0.00000000       0.00000000
Nb      22.08589621       4.48761125      11.18505584       0.00000000       0.00000000       0.00000000
Nb      19.25714466       2.67818087       8.10284762       0.00000000       0.00000000       0.00000000
Nb      20.31551990       2.25887563      11.95998628       0.00000000       0.00000000       0.00000000
Nb      13.48631738       3.15947939      16.25150758       0.00000000       0.00000000       0.00000000
Nb       8.33769955       9.73907903      14.60812411       0.00000000       0.00000000       0.00000000
Nb       8.10673656       3.19140248      16.18298797       0.00000000       0.00000000       0.00000000
Nb      15.40970333      19.49486457       8.28836928       0.00000000       0.00000000       0.00000000
Nb      18.90941781      11.60729278      15.17667085       0.00000000       0.00000000       0.00000000
Nb       7.36288583      17.38609391      17.25456571       0.00000000       0.00000000       0.00000000
Nb      11.26925529      14.99585530       7.74831715       0.00000000       0.00000000       0.00000000
Nb       1.05485945       3.00832526      16.56396009       0.00000000       0.00000000       0.00000000
Nb       1.59641531      12.31767888      14.12111503       0.00000000       0.00000000       0.00000000
Nb       6.90991302      10.40330978      16.47805702       0.00000000       0.00000000       0.00000000
Ta       6.99173102      21.58673819      11.55079451       0.00000000       0.00000000       0.00000000
Ta       4.18832373      20.73148570       9.95613440       0.00000000       0.00000000       0.00000000
Ta       6.33096349       7.47723423      16.44891181       0.00000000       0.00000000       0.00000000
Ta      11.28998949      18.32987109       8.24526464       0.00000000       0.00000000       0.00000000
Ta      19.11394271       1.65768267      16.20361637       0.00000000       0.00000000       0.00000000
Ta       4.52999722      13.87619006      12.65642490       0.00000000       0.00000000       0.00000000
Ta       1.93847406      19.65976842       7.89209021       0.00000000       0.00000000       0.00000000
Ta      20.46440192      20.38410609       7.27038047       0.00000000       0.00000000       0.00000000
Ta      15.07624807      20.13620421      14.05647266       0.00000000       0.00000000       0.00000000
Ta      11.38845373      11.71307986       7.03136506       0.00000000       0.00000000       0.00000000
Ta       5.45835205      16.10511437      14.70148017       0.00000000       0.00000000       0.00000000
Ta      21.23370655       6.11182729      13.26594556       0.00000000       0.00000000       0.00000000
Ta      14.34519384       0.35191672      16.86581453       0.00000000       0.00000000       0.00000000
Ta       0.21816968       9.48191224      15.98339774       0.00000000       0.00000000       0.00000000
Ta      12.05156866       4.38013485      11.00387398       0.00000000       0.00000000       0.00000000
Ta      22.40132462      15.72967967      10.00656784       0.00000000       0.00000000       0.00000000
Ta      11.40427767       6.43127021      17.07706868       0.00000000       0.00000000       0.00000000
Ta      12.59906799       9.54642990      10.60208413       0.00000000       0.00000000       0.00000000
Ta       2.71303877       8.21131674      10.77236090       0.00000000       0.00000000       0.00000000
Ta       5.98367496       2.47345581      13.93320477       0.00000000       0.00000000       0.00000000
Ta      17.79149276       1.01778461      11.26031182       0.00000000       0.00000000       0.00000000
Ta      17.17432966      12.59976125      12.87004801       0.00000000       0.00000000       0.00000000
Ta       4.75768378      17.01408731       7.47899766       0.00000000       0.00000000       0.00000000
Ta      17.80209791      21.04728372      11.99496726       0.00000000       0.00000000       0.00000000
Ta      19.89647054      19.70412428      12.21486921       0.00000000       0.00000000       0.00000000
Ta       7.01639871       0.19909548       8.52296847       0.00000000       0.00000000       0.00000000
Ta      18.06522165      15.31219035      14.69735453       0.00000000       0.00000000       0.00000000
Ta       9.52110831       5.99776277      10.36024429       0.00000000       0.00000000       0.00000000
Ta      15.35025301       3.93188507       8.56233339       0.00000000       0.00000000       0.00000000
Ta      17.50139254      11.50920643       9.77121559       0.00000000       0.00000000       0.00000000
Ta      18.04264130      14.76823473      11.03519066       0.00000000       0.00000000       0.00000000
Ta       2.27440343      22.80769801      13.60378110       0.00000000       0.00000000       0.00000000
Ta      20.96782683      17.13668847       7.48902834       0.00000000       0.00000000       0.00000000
Ta      13.89454629       7.70940374      14.99635180       0.00000000       0.00000000       0.00000000
Ta      16.26055603       0.69165750      14.40168356       0.00000000       0.00000000       0.00000000
Ta       8.29608961       2.59712111       9.72879401       0.00000000       0.00000000       0.00000000
Ti       9.21103061      15.95850952       6.90785183       0.00000000       0.00000000       0.00000000
Ti       2.53491729      16.32747520      14.34189768       0.00000000       0.00000000       0.00000000
Ti       1.90216958      21.11592044      11.16940437       0.00000000       0.00000000       0.00000000
Ti       6.44894758      16.01991557      10.48966508       0.00000000       0.00000000       0.00000000
Ti      13.01084189       6.33704732       9.10017184       0.00000000       0.00000000       0.00000000
Ti       8.61823094      11.40748063      12.52425325       0.00000000       0.00000000       0.00000000
Ti      16.88257478       0.47154800       8.54542309       0.00000000       0.00000000       0.00000000
Ti       1.12413602       9.38591003      13.05158928       0.00000000       0.00000000       0.00000000
Ti      14.21532702      15.21142092      13.58259950       0.00000000       0.00000000       0.00000000
Ti       6.27275050       5.41783685      11.69848989       0.00000000       0.00000000       0.00000000
Ti       3.31166404      21.74602305      16.59627818       0.00000000       0.00000000       0.00000000
Ti       1.33029218       9.68107130       8.35662619       0.00000000       0.00000000       0.00000000
Ti       2.87070053       2.13454877      12.53587335       0.00000000       0.00000000       0.00000000
Ti       8.05101043       1.09118605      14.51211378       0.00000000       0.00000000       0.00000000
Ti      10.02430873      12.87703481      10.80982615       0.00000000       0.00000000       0.00000000
Ti       1.97824835      14.76274213      16.36105293       0.00000000       0.00000000       0.00000000
Ti      15.37054185      16.22906572      17.12990343       0.00000000       0.00000000       0.00000000
Ti      10.87244111      19.34539073      10.86772238       0.00000000       0.00000000       0.00000000
Ti      14.19889335      12.05035454      12.29853195       0.00000000       0.00000000       0.00000000
Ti       6.41565099      22.80586195       7.36141142       0.00000000       0.00000000       0.00000000
Ti      16.87875193       9.00006890      17.16626354       0.00000000       0.00000000       0.00000000
Ti       8.92258455      12.13145789      16.79037756       0.00000000       0.00000000       0.00000000
Ti       2.48682473       7.46190233       6.86369760       0.00000000       0.00000000       0.00000000
Ti      13.76885262      20.72802488       7.32131327       0.00000000       0.00000000       0.00000000
Ti       7.62028152      21.88726702      16.23921832       0.00000000       0.00000000       0.00000000
Ti      17.57603508       6.17904661       7.93657484       0.00000000       0.00000000       0.00000000
Ti       0.94800000       4.80913437      14.30171946       0.00000000       0.00000000       0.00000000
Ti       2.32467328      18.65009436      15.90310832       0.00000000       0.00000000       0.00000000
Zr       0.58010707       4.27005861      11.20591614       0.00000000       0.00000000       0.00000000
Zr       3.38519977      15.09601766       9.33581944       0.00000000       0.00000000       0.00000000
Zr      15.14287009       8.71224023       8.54747154       0.00000000       0.00000000       0.00000000
Zr       0.80685962       5.24278145       8.06649636       0.00000000       0.00000000       0.00000000
Zr      13.13287643       1.40495509       9.00943757       0.00000000       0.00000000       0.00000000
Zr      21.53113912      14.35968620       6.78348952       0.00000000       0.00000000       0.00000000
Zr       1.57494965       7.06648971      17.43551550       0.00000000       0.00000000       0.00000000
Zr       8.08448625      20.00191210       8.54883449       0.00000000       0.00000000       0.00000000
Zr      10.84466278      17.37298611      14.31240444       0.00000000       0.00000000       0.00000000
Zr       5.38172941       2.71913454      11.00464090       0.00000000       0.00000000       0.00000000
Zr      20.80905037       9.00363115      12.09690658       0.00000000       0.00000000       0.00000000
Zr       0.42319517      14.87239282       8.97561359       0.00000000       0.00000000       0.00000000
Zr      21.18720885      15.20104294      14.81814516       0.00000000       0.00000000       0.00000000
Zr       0.64656300      17.85916649      11.58084544       0.00000000       0.00000000       0.00000000
Zr       2.57523013       0.45929728      17.02728504       0.00000000       0.00000000       0.00000000
Zr      17.07801281      21.05556544       6.59439996       0.00000000       0.00000000       0.00000000
Zr      11.20508306       2.69906885       6.62818052       0.00000000       0.00000000       0.00000000
Zr       5.12087010      13.21195040      15.87877020       0.00000000       0.00000000       0.00000000
Zr      14.66264021       3.04758918      12.33430849       0.00000000       0.00000000       0.00000000
Zr       1.15772869       0.28592070      13.28177415       0.00000000       0.00000000       0.00000000
Zr      13.10252268      15.64596833      15.48750414       0.00000000       0.00000000       0.00000000
Zr      21.45936475      18.33902573      14.27261796       0.00000000       0.00000000       0.00000000
Zr       4.64548571      21.74430847      14.14448977       0.00000000       0.00000000       0.00000000
Zr      22.42422368      21.22756023      13.66905365       0.00000000       0.00000000       0.00000000
Zr      12.58945541      16.00157533      10.03684093       0.00000000       0.00000000       0.00000000
Zr      12.13688658      19.70585021      13.58633895       0.00000000       0.00000000       0.00000000
Zr      18.51350162       7.41885392      14.19954386       0.00000000       0.00000000       0.00000000
Zr      10.56942967       8.80542024       8.46659819       0.00000000       0.00000000       0.00000000
Zr       0.31374193      22.00704983       8.53565251       0.00000000       0.00000000       0.00000000
Zr      19.10329692      22.40261645      15.11431761       0.00000000       0.00000000       0.00000000
Zr      20.84723911       9.03090505       7.05253286       0.00000000       0.00000000       0.00000000
Zr      15.13693697      13.09675021      15.79472018       0.00000000       0.00000000       0.00000000
Zr      20.84909092       7.23114237      16.09438486       0.00000000       0.00000000       0.00000000
Zr      18.44263067      17.87583421       9.24176770       0.00000000       0.00000000       0.00000000
Zr      20.48956871      11.66996127       9.85890343       0.00000000       0.00000000       0.00000000
Zr       7.05867629      10.26586834       8.90712493       0.00000000       0.00000000       0.00000000
Zr       9.62021219       3.29555561      12.76552519       0.00000000       0.00000000       0.00000000
Zr       7.17546149       6.96082494       8.63280086       0.00000000       0.00000000       0.00000000
860
Lattice="22.90502845 0.0 0.0 0.0 22.90502845 0.0 0.0 0.0 22.90502845" Properties=species:S:1:pos:R:3:momenta:R:3 pbc="T T T"
C       19.99091443       7.48617555       2.86350752       0.00000000       0.00000000       0.00000000
C       11.46315026      16.56397962       0.69789535       0.00000000       0.00000000       0.00000000
C       16.99037656       8.75457361       3.95163046       0.00000000       0.00000000       0.00000000
C       15.16672280      12.91510818       4.44274133       0.00000000       0.00000000       0.00000000
C        2.60505458       1.05013721      18.73378403       0.00000000       0.00000000       0.00000000
C        3.57142143      15.14947627       6.24932261       0.00000000       0.00000000       0.00000000
C        9.25308280      10.55652143       1.95930547       0.00000000       0.00000000       0.00000000
C       17.13109193      12.08420951      18.80218997       0.00000000       0.00000000       0.00000000
C       16.05670406      18.19742321       6.00195537       0.00000000       0.00000000       0.00000000
C        2.88403516       5.35524639       0.33030199       0.00000000       0.00000000       0.00000000
C        8.40823238       0.34285021      18.86187655       0.00000000       0.00000000       0.00000000
C       11.36838455       6.41494328       1.51453877       0.00000000       0.00000000       0.00000000
C        3.64576634      16.35692506      19.18692444       0.00000000       0.00000000       0.00000000
C       19.91749163      10.87731157      17.53796898       0.00000000       0.00000000       0.00000000
C        4.73594219      19.29158546      18.51482427       0.00000000       0.00000000       0.00000000
C        8.52453794      15.41469839      22.43995826       0.00000000       0.00000000       0.00000000
C       20.52488270       5.74761909      20.45507737       0.00000000       0.00000000       0.00000000
C        8.36369189       7.62884434       2.52385023       0.00000000       0.00000000       0.00000000
C        8.38938330       3.68486869      20.90537226       0.00000000       0.00000000       0.00000000
C        1.62186842      17.29954424       4.55477848       0.00000000       0.00000000       0.00000000
C       22.70390860      21.80386723       4.85310548       0.00000000       0.00000000       0.00000000
C       10.22477638      11.33893417      21.99111898       0.00000000       0.00000000       0.00000000
C        0.74986176      19.86080189      22.54548249       0.00000000       0.00000000       0.00000000
C       19.89564519       9.65960267       5.12173290       0.00000000       0.00000000       0.00000000
C       11.35483102      14.27093658      21.31701322       0.00000000       0.00000000       0.00000000
C        3.62895801      18.56467707      21.55064873       0.00000000       0.00000000       0.00000000
C        4.59907625      11.31322410      21.91794288       0.00000000       0.00000000       0.00000000
C       17.04828884      22.26537823      17.76757929       0.00000000       0.00000000       0.00000000
C       14.07652689      20.12025695       4.07387790       0.00000000       0.00000000       0.00000000
C       21.62132592      18.31918099       5.90534094       0.00000000       0.00000000       0.00000000
C       16.96633228      10.91550134       6.29912256       0.00000000       0.00000000       0.00000000
C       13.29576412      22.70535788      21.93612015       0.00000000       0.00000000       0.00000000
C       22.58453384      19.52239201       2.63055513       0.00000000       0.00000000       0.00000000
C       14.17232573      13.33580095      20.18300188       0.00000000       0.00000000       0.00000000
C        2.69978168       3.31114767      20.99578656       0.00000000       0.00000000       0.00000000
C        8.44219341      22.34425831       6.13225803       0.00000000       0.00000000       0.00000000
C        3.58555694      12.83335509       4.18189330       0.00000000       0.00000000       0.00000000
C       16.19523186      13.56747496       1.34605098       0.00000000       0.00000000       0.00000000
C        6.80482391       1.34449610       4.26614956       0.00000000       0.00000000       0.00000000
C        1.77180446       6.73596249       5.79221549       0.00000000       0.00000000       0.00000000
C       13.30345419      12.47835097       0.22107473       0.00000000       0.00000000       0.00000000
C        7.54132770      16.82376223       4.77362192       0.00000000       0.00000000       0.00000000
C        3.72928363       8.25033970      22.49143787       0.00000000       0.00000000       0.00000000
C        9.20598859       8.34547810      22.57312080       0.00000000       0.00000000       0.00000000
C       11.48761215       1.25169482      19.97776978       0.00000000       0.00000000       0.00000000
C        6.52442705       5.02994090      19.06038177       0.00000000       0.00000000       0.00000000
C       11.27864275      12.19944927      19.01955435       0.00000000       0.00000000       0.00000000
C       16.04336497       0.97592458       0.26576141       0.00000000       0.00000000       0.00000000
C        4.71776280       1.22174449       0.06991577       0.00000000       0.00000000       0.00000000
C       22.00456558       1.05322743       0.09184330       0.00000000       0.00000000       0.00000000
C       18.75983735      20.38917273      19.51163941       0.00000000       0.00000000       0.00000000
C       12.24232392      17.26574206      20.45352638       0.00000000       0.00000000       0.00000000
C        0.02290726       8.63519843       3.75868847       0.00000000       0.00000000       0.00000000
C        6.56189864       7.39647796      21.24092649       0.00000000       0.00000000       0.00000000
C       15.23856364      20.67735924       0.93249987       0.00000000       0.00000000       0.00000000
C        5.13236982       3.60617958       3.18758578       0.00000000       0.00000000       0.00000000
C        8.22321963      13.03482950      20.05234064       0.00000000       0.00000000       0.00000000
C       20.94293913       0.47241290       3.11056296       0.00000000       0.00000000       0.00000000
C        0.18089761      12.01536067      18.82566266       0.00000000       0.00000000       0.00000000
C        0.84468461       4.90932191      19.21122368       0.00000000       0.00000000       0.00000000
C       11.41485272      21.21239396       5.16976831       0.00000000       0.00000000       0.00000000
C       19.15639047       6.81439221       5.82386787       0.00000000       0.00000000       0.00000000
C        5.46213115      19.12950805       2.75502960       0.00000000       0.00000000       0.00000000
C        4.48861538       5.98066503       4.58566985       0.00000000       0.00000000       0.00000000
C       15.08890253      18.37418571      21.64969251       0.00000000       0.00000000       0.00000000
C       18.28966361      11.70193006       3.24019781       0.00000000       0.00000000       0.00000000
C        7.38090626      12.37008379       0.20488420       0.00000000       0.00000000       0.00000000
C       14.17326432       2.88636831      21.22360866       0.00000000       0.00000000       0.00000000
C        7.31431545       6.77588680       5.72271815       0.00000000       0.00000000       0.00000000
C        5.63530150      12.16877965      18.85945602       0.00000000       0.00000000       0.00000000
C        6.61875962      15.17925668      18.20012402       0.00000000       0.00000000       0.00000000
C       20.85604040      12.98308516       4.31281854       0.00000000       0.00000000       0.00000000
C       10.35504228       3.18280180       2.33234901       0.00000000       0.00000000       0.00000000
C       19.47092735      10.42613181      20.31390509       0.00000000       0.00000000       0.00000000
C       12.19403402       7.32349634      21.53561612       0.00000000       0.00000000       0.00000000
C        3.68571886       2.84175759       5.54957569       0.00000000       0.00000000       0.00000000
C        0.05172649       6.43883092       1.48171989       0.00000000       0.00000000       0.00000000
C        6.43802788      22.02172711       2.04887716       0.00000000       0.00000000       0.00000000
C       16.15133902      15.78771652       3.70882099       0.00000000       0.00000000       0.00000000
C       19.90859577       2.85568121      21.35147526       0.00000000       0.00000000       0.00000000
C       19.76129387      15.58270769      22.14423217       0.00000000       0.00000000       0.00000000
C        9.35317310       6.19301306      20.19093347       0.00000000       0.00000000       0.00000000
C       17.97358235       6.51988867      21.75681640       0.00000000       0.00000000       0.00000000
C       13.36063634      14.67835012       2.75097361       0.00000000       0.00000000       0.00000000
C       13.11075401       8.08828676      18.54930920       0.00000000       0.00000000       0.00000000
C       16.14029207       5.64182297       4.73876153       0.00000000       0.00000000       0.00000000
C       18.10841492      17.44216280      20.15981702       0.00000000       0.00000000       0.00000000
C       19.14744075      12.42317008       0.06647133       0.00000000       0.00000000       0.00000000
C        0.86687320      11.93768831       3.06883401       0.00000000       0.00000000       0.00000000
C       14.99024180       3.61888881      18.37642108       0.00000000       0.00000000       0.00000000
C       18.96647626      22.85307658      21.93610847       0.00000000       0.00000000       0.00000000
C        2.62232749      15.60443219      22.30974560       0.00000000       0.00000000       0.00000000
C        2.85027922       7.68511578       2.62572683       0.00000000       0.00000000       0.00000000
C        2.66858682      20.37588894       3.78166774       0.00000000       0.00000000       0.00000000
C       20.83053970      18.72675916      21.22734945       0.00000000       0.00000000       0.00000000
C        2.00769097      10.15768655      20.79633739       0.00000000       0.00000000       0.00000000
C        7.58755432       8.07270130      18.35253430       0.00000000       0.00000000       0.00000000
C       12.11859161      15.17972756      18.15610366       0.00000000       0.00000000       0.00000000
C       13.25900610      20.44084319      19.70702900       0.00000000       0.00000000       0.00000000
C       14.08832606      22.52850909       6.31934477       0.00000000       0.00000000       0.00000000
C       16.04287446      19.32154874      18.34567730       0.00000000       0.00000000       0.00000000
C        1.09028200       1.81323120       4.32934158       0.00000000       0.00000000       0.00000000
C       19.99850345       0.55551434      19.01662354       0.00000000       0.00000000       0.00000000
C       10.43463031      19.21852028      18.44473361       0.00000000       0.00000000       0.00000000
C       18.41391625      10.02450050      20.86293766       0.00000000       0.00000000       0.00000000
C       13.91999239       5.04073378       0.59549293       0.00000000       0.00000000       0.00000000
C       18.77906869      17.24752113       4.72093709       0.00000000       0.00000000       0.00000000
C       17.12508392      18.97893874       2.84559589       0.00000000       0.00000000       0.00000000
C       12.43720378      13.85970775       5.75155751       0.00000000       0.00000000       0.00000000
C        5.67720314      14.32499333      21.21195103       0.00000000       0.00000000       0.00000000
C        6.30836451       9.41137930       0.84492821       0.00000000       0.00000000       0.00000000
C       22.84722523       1.60740663      20.08219639       0.00000000       0.00000000       0.00000000
C       15.01403161       6.19983058      20.51803702       0.00000000       0.00000000       0.00000000
C       18.24758247       9.53566841       0.95361362       0.00000000       0.00000000       0.00000000
C       16.01661897       3.27467922       2.46418516       0.00000000       0.00000000       0.00000000
C       17.81100767       1.37147443       4.52579418       0.00000000       0.00000000       0.00000000
C        8.39408436      11.07656542      17.56075304       0.00000000       0.00000000       0.00000000
C       17.98303245      19.67956568      22.72931367       0.00000000       0.00000000       0.00000000
C       12.25953859       4.88773688      19.28106721       0.00000000       0.00000000       0.00000000
C       12.31646096      11.65724428       3.15402928       0.00000000       0.00000000       0.00000000
C       14.86491235       8.37576521      22.70906705       0.00000000       0.00000000       0.00000000
C        0.80327527      14.09390050       5.39011828       0.00000000       0.00000000       0.00000000
C        8.59675302      17.70406780       1.78956821       0.00000000       0.00000000       0.00000000
C       20.87344928      16.28998804      19.09259031       0.00000000       0.00000000       0.00000000
C       17.09208393      16.63781697       0.37751647       0.00000000       0.00000000       0.00000000
C       12.92570260      10.21926990      21.09912093       0.00000000       0.00000000       0.00000000
C        2.00520349       4.62002591       3.66619243       0.00000000       0.00000000       0.00000000
C        0.62737969       7.03803577      21.57171868       0.00000000       0.00000000       0.00000000
C        5.62269585      21.37538794       4.83296093       0.00000000       0.00000000       0.00000000
C       21.82532077      13.71948471       1.41568835       0.00000000       0.00000000       0.00000000
C        1.82903216       2.31781835       1.26950326       0.00000000       0.00000000       0.00000000
C       17.97883099      15.03971130      17.83507492       0.00000000       0.00000000       0.00000000
C        2.55684593      18.04961520       1.58197146       0.00000000       0.00000000       0.00000000
C        1.87430276      22.87087507      21.83787941       0.00000000       0.00000000       0.00000000
C       13.14403193       4.38028464       3.59119284       0.00000000       0.00000000       0.00000000
C       13.45688797      16.96685612       4.96567389       0.00000000       0.00000000       0.00000000
C       17.43983923       7.69755289      21.82242568       0.00000000       0.00000000       0.00000000
C        7.54539885      14.69794303       2.65532771       0.00000000       0.00000000       0.00000000
C       14.08021055       9.61352921       5.09190692       0.00000000       0.00000000       0.00000000
C        4.75150002       9.20101070      19.49771314       0.00000000       0.00000000       0.00000000
C       19.92348408       5.17338655       0.81189725       0.00000000       0.00000000       0.00000000
C        2.94249087      13.27359193      20.00752310       0.00000000       0.00000000       0.00000000
C       15.12391112       0.16307204       3.40626075       0.00000000       0.00000000       0.00000000
C       14.50628605      17.68343957       1.83400105       0.00000000       0.00000000       0.00000000
C       10.50388685      18.16938090       6.01163685       0.00000000       0.00000000       0.00000000
C        7.68045115      22.71975265      21.80576760       0.00000000       0.00000000       0.00000000
C        2.84031248       9.92058819       5.05442054       0.00000000       0.00000000       0.00000000
C        7.58668249       2.30444365       1.23672479       0.00000000       0.00000000       0.00000000
C       10.63451928       2.30527744      20.35550796       0.00000000       0.00000000       0.00000000
C       11.30525635       4.33350179      22.21602263       0.00000000       0.00000000       0.00000000
C       16.96566628       3.93087823      22.40350829       0.00000000       0.00000000       0.00000000
C       11.23124494      18.67783605       3.07586930       0.00000000       0.00000000       0.00000000
C       18.93628731       2.17637003       1.36665834       0.00000000       0.00000000       0.00000000
C        4.63111741      13.52597296       1.33765856       0.00000000       0.00000000       0.00000000
C       21.66586888      16.17392051       3.54173977       0.00000000       0.00000000       0.00000000
C       11.31487374      22.25968427      17.69296740       0.00000000       0.00000000       0.00000000
C       13.07050778       6.61207034       5.77128795       0.00000000       0.00000000       0.00000000
C        5.67454679       1.93089839      19.73159268       0.00000000       0.00000000       0.00000000
C        9.54031206      18.37934573      21.58206815       0.00000000       0.00000000       0.00000000
C        0.62972860      17.38086539      20.31292413       0.00000000       0.00000000       0.00000000
C       21.79557960       3.32812516       2.61487293       0.00000000       0.00000000       0.00000000
C        5.87421474      21.72018484      17.72726505       0.00000000       0.00000000       0.00000000
C        9.04441975       2.45310697      20.69217881       0.00000000       0.00000000       0.00000000
C       12.31951447       1.25707167       4.37910413       0.00000000       0.00000000       0.00000000
C       12.44003308      19.62328730      22.87208482       0.00000000       0.00000000       0.00000000
C        5.70584999      10.93444260       6.32530284       0.00000000       0.00000000       0.00000000
C       14.46248460      15.39492150      22.43224616       0.00000000       0.00000000       0.00000000
C        1.85983820       7.83507446      18.36373558       0.00000000       0.00000000       0.00000000
C       22.76263455       3.98140392      22.41169693       0.00000000       0.00000000       0.00000000
C        9.43057121       2.50522095       5.37989108       0.00000000       0.00000000       0.00000000
C       19.77389054      17.99359407       1.72400038       0.00000000       0.00000000       0.00000000
C       10.33601333       9.06982100      19.51608592       0.00000000       0.00000000       0.00000000
C       10.99501475      10.82835897       6.04978878       0.00000000       0.00000000       0.00000000
C       14.26921982      11.37799195      18.32093863       0.00000000       0.00000000       0.00000000
C       14.28089150       0.55210037      18.83553757       0.00000000       0.00000000       0.00000000
C       10.48659958       0.77668984       0.19842378       0.00000000       0.00000000       0.00000000
C        4.57187442      15.96399153       3.47425896       0.00000000       0.00000000       0.00000000
C        0.85739228      15.14537027      18.13305179       0.00000000       0.00000000       0.00000000
C       15.98602805      11.47431054      21.99614949       0.00000000       0.00000000       0.00000000
C        8.17457433       9.77372333       4.99510614       0.00000000       0.00000000       0.00000000
C        9.38743909      12.75722249       4.31675823       0.00000000       0.00000000       0.00000000
C        6.49552229      19.63771595      22.56799052       0.00000000       0.00000000       0.00000000
C        5.06892379       4.77361594       4.29082024       0.00000000       0.00000000       0.00000000
C        8.40824609      20.14950250       3.94767839       0.00000000       0.00000000       0.00000000
C       20.96010702      21.02637900       0.74003399       0.00000000       0.00000000       0.00000000
C       11.12913564       8.53199011       3.84569719       0.00000000       0.00000000       0.00000000
C        1.01743619      22.25599962       1.90333401       0.00000000       0.00000000       0.00000000
C       16.99616253       6.22023266       1.72128491       0.00000000       0.00000000       0.00000000
C       17.96686520      21.90492601       2.09385741       0.00000000       0.00000000       0.00000000
C       16.00967649       6.57772639      17.64271979       0.00000000       0.00000000       0.00000000
C       22.61356448      14.64191870      21.11233313       0.00000000       0.00000000       0.00000000
C       17.13994732       1.64529223      20.24412215       0.00000000       0.00000000       0.00000000
C        3.62481600      10.50523864       1.88954122       0.00000000       0.00000000       0.00000000
C       17.11187493      14.39517339      20.98254790       0.00000000       0.00000000       0.00000000
C       15.11240684      10.47107361       2.06168101       0.00000000       0.00000000       0.00000000
C        7.84611311       4.57734480       3.18515191       0.00000000       0.00000000       0.00000000
C       22.80168968      10.89083299       6.08877196       0.00000000       0.00000000       0.00000000
C        5.60643506       4.28759946      22.05398171       0.00000000       0.00000000       0.00000000
C       10.11236563      13.50810900       1.36040410       0.00000000       0.00000000       0.00000000
C       17.03477977      21.39203177       5.29984777       0.00000000       0.00000000       0.00000000
C        9.48363431       0.16408713       3.03127744       0.00000000       0.00000000       0.00000000
C        1.80161971      20.35869702      19.59572649       0.00000000       0.00000000       0.00000000
C       21.90277476      11.29413315      21.79514142       0.00000000       0.00000000       0.00000000
C       21.92321823      21.65195349      20.63222744       0.00000000       0.00000000       0.00000000
C        7.51579052      10.22641749      20.76306126       0.00000000       0.00000000       0.00000000
C        5.64684261       6.44236862       1.46961854       0.00000000       0.00000000       0.00000000
C       20.08541577      13.21700184      19.82869514       0.00000000       0.00000000       0.00000000
C        9.53775364      20.80712870       0.86123923       0.00000000       0.00000000       0.00000000
C       18.77607339      14.78791328       2.37404300       0.00000000       0.00000000       0.00000000
C       16.17959289      21.57909123      20.94836861       0.00000000       0.00000000       0.00000000
C        1.43239385      15.09641147       2.47502926       0.00000000       0.00000000       0.00000000
C        6.79099147      13.94424862       5.50682136       0.00000000       0.00000000       0.00000000
C       17.68101442       4.63964059      19.48348791       0.00000000       0.00000000       0.00000000
C        4.56022365      21.45849711      20.64596682       0.00000000       0.00000000       0.00000000
C       15.75112930       9.38644379      19.63208215       0.00000000       0.00000000       0.00000000
C       10.18353970       5.54843141       4.58605440       0.00000000       0.00000000       0.00000000
C       20.66275406       2.78423831       5.51153710       0.00000000       0.00000000       0.00000000
C        3.75067226       0.44381878       3.08287187       0.00000000       0.00000000       0.00000000
C        5.76614336      16.66842161       0.63724069       0.00000000       0.00000000       0.00000000
C       20.87463945       8.10927952      22.65744336       0.00000000       0.00000000       0.00000000
C       12.39711402      21.92446643       2.20185346       0.00000000       0.00000000       0.00000000
C        1.72939525      12.47401091       0.10044767       0.00000000       0.00000000       0.00000000
C        0.74841145       9.46588974       0.68710696       0.00000000       0.00000000       0.00000000
C        0.00371220      22.38511634      17.72892343       0.00000000       0.00000000       0.00000000
C        5.30215028      22.89210313      17.63299274       0.00000000       0.00000000       0.00000000
C        3.51715217      20.91146250       0.82235218       0.00000000       0.00000000       0.00000000
C       10.41398721      15.76571926       3.64615641       0.00000000       0.00000000       0.00000000
C        9.37299497      16.14350664      19.30677195       0.00000000       0.00000000       0.00000000
C       21.72579755      19.21605118      18.41121993       0.00000000       0.00000000       0.00000000
C        5.46666967       8.72949081       3.75665585       0.00000000       0.00000000       0.00000000
C       17.97941636      14.13389810       5.64162326       0.00000000       0.00000000       0.00000000
C       20.88848056       3.35346998      18.01063833       0.00000000       0.00000000       0.00000000
C       15.16792629       2.46299429       5.65918741       0.00000000       0.00000000       0.00000000
C       12.10704343       9.55072973       1.03912694       0.00000000       0.00000000       0.00000000
C        3.79421224       6.00652084      20.30225607       0.00000000       0.00000000       0.00000000
C        2.59900075       0.02401082       6.17089648       0.00000000       0.00000000       0.00000000
C        3.87964969       4.04395665      17.93330796       0.00000000       0.00000000       0.00000000
C        6.54324661      17.35970330      20.38643063       0.00000000       0.00000000       0.00000000
C        7.66880423      20.34426719      19.63701825       0.00000000       0.00000000       0.00000000
C        9.46052653       3.83494477      17.99026073       0.00000000       0.00000000       0.00000000
C       13.27320582       1.96736232       1.24938376       0.00000000       0.00000000       0.00000000
C       19.88849772      20.23593228       4.16093873       0.00000000       0.00000000       0.00000000
C       21.85048048       5.77111984       4.49963044       0.00000000       0.00000000       0.00000000
C        8.39289618       5.36430351       0.19186889       0.00000000       0.00000000       0.00000000
C        6.44972473      11.77433815       3.05666009       0.00000000       0.00000000       0.00000000
C        4.71213916      18.04578826       5.54067918       0.00000000       0.00000000       0.00000000
C       21.79567886       8.92105769      19.61010476       0.00000000       0.00000000       0.00000000
C        4.55439873       3.54785639       1.99353171       0.00000000       0.00000000       0.00000000
C       18.44092863       7.74435304      18.56518885       0.00000000       0.00000000       0.00000000
C       18.67618459       4.44257689       3.81272473       0.00000000       0.00000000       0.00000000
C       22.59584591      16.84725466       0.44396195       0.00000000       0.00000000       0.00000000
C       14.11554076       7.54057707       2.75305280       0.00000000       0.00000000       0.00000000
C       15.18988399      16.29891382      19.27850485       0.00000000       0.00000000       0.00000000
C       21.04177190      10.80452134       1.93932558       0.00000000       0.00000000       0.00000000
C       10.46270582      21.36429736      20.71915148       0.00000000       0.00000000       0.00000000
C        2.95863696      11.00243206      17.68785432       0.00000000       0.00000000       0.00000000
Hf      12.16158643       6.48405882       3.63732390       0.00000000       0.00000000       0.00000000
Hf      18.95911169      15.27639280      19.81005664       0.00000000       0.00000000       0.00000000
Hf       6.37227691       8.79145506       6.19687489       0.00000000       0.00000000       0.00000000
Hf      17.94563142       6.73469245       3.75167632       0.00000000       0.00000000       0.00000000
Hf       1.08796791       6.66969323       3.61924237       0.00000000       0.00000000       0.00000000
Hf       3.71317816      13.43223605      22.16323835       0.00000000       0.00000000       0.00000000
Hf       9.43647549       2.69554457       0.33756773       0.00000000       0.00000000       0.00000000
Hf       2.46974762      13.06539831       2.05668057       0.00000000       0.00000000       0.00000000
Hf       3.39960344       1.27429978      20.97040391       0.00000000       0.00000000       0.00000000
Hf       6.64265256       6.79165487       3.57086563       0.00000000       0.00000000       0.00000000
Hf      11.30558075       3.25215764       4.60311742       0.00000000       0.00000000       0.00000000
Hf      11.46428464      19.29335555      21.03989522       0.00000000       0.00000000       0.00000000
Hf      17.72021671       9.92717301      18.50831061       0.00000000       0.00000000       0.00000000
Hf      19.63909904      22.81746910       1.16432368       0.00000000       0.00000000       0.00000000
Hf       9.48199302       5.57408051       2.14334632       0.00000000       0.00000000       0.00000000
Hf       4.01850258      20.05603276       5.48141823       0.00000000       0.00000000       0.00000000
Hf      14.97408671       5.35745613       2.54254692       0.00000000       0.00000000       0.00000000
Hf      10.47136944      16.24150142      21.34837788       0.00000000       0.00000000       0.00000000
Hf      12.67377900      16.77915878       2.84874364       0.00000000       0.00000000       0.00000000
Hf      21.58741975       0.83263483       5.70734420       0.00000000       0.00000000       0.00000000
Hf       5.62391152       7.24138360      19.24864755       0.00000000       0.00000000       0.00000000
Hf      14.07846372       4.67014556       5.64382130       0.00000000       0.00000000       0.00000000
Hf      20.66607001       8.81563095      17.55834230       0.00000000       0.00000000       0.00000000
Hf      20.42848670      20.94656401      18.35335202       0.00000000       0.00000000       0.00000000
Hf      15.80261532      10.70283163       4.15904967       0.00000000       0.00000000       0.00000000
Hf      15.24087478      18.29122681       3.94446821       0.00000000       0.00000000       0.00000000
Hf       0.61185145      19.87139178       4.55730797       0.00000000       0.00000000       0.00000000
Hf       1.27408253       9.83793322      18.71949125       0.00000000       0.00000000       0.00000000
Hf      16.97930523       1.12898970       2.50186838       0.00000000       0.00000000       0.00000000
Hf      10.44939256      18.66194717       0.84506601       0.00000000       0.00000000       0.00000000
Hf       3.70586295      16.10023506       1.31107194       0.00000000       0.00000000       0.00000000
Hf      12.26251741       1.74317996      22.11694065       0.00000000       0.00000000       0.00000000
Hf      12.10354292      22.15429973      19.71071964       0.00000000       0.00000000       0.00000000
Hf       0.53754498      14.84411749       0.38954319       0.00000000       0.00000000       0.00000000
Hf      12.15086182      10.17863202      18.99177506       0.00000000       0.00000000       0.00000000
Hf      11.61313545      16.00012153       5.71580752       0.00000000       0.00000000       0.00000000
Hf       5.54179864      17.25111082      18.27797987       0.00000000       0.00000000       0.00000000
Hf      18.36554696      12.44995520      20.74939400       0.00000000       0.00000000       0.00000000
Hf      13.10887742       9.42867600       3.04917732       0.00000000       0.00000000       0.00000000
Hf      18.90304240      17.74686605      22.21078924       0.00000000       0.00000000       0.00000000
Hf       7.55365010      20.03143265       1.72623599       0.00000000       0.00000000       0.00000000
Hf      22.06354030       8.33075195       1.83741623       0.00000000       0.00000000       0.00000000
Hf       0.87600068      22.47504038      19.93671759       0.00000000       0.00000000       0.00000000
Hf      16.24751116       8.63470791       1.73814128       0.00000000       0.00000000       0.00000000
Hf      15.79920318       5.89481637      22.60041895       0.00000000       0.00000000       0.00000000
Hf       7.56468867      17.52759988      22.44985936       0.00000000       0.00000000       0.00000000
Hf      17.98411068      19.35915552       5.25535101       0.00000000       0.00000000       0.00000000
Hf       9.99615246      10.59947349       4.11498301       0.00000000       0.00000000       0.00000000
Hf       4.56456689       4.01207845      20.08690730       0.00000000       0.00000000       0.00000000
Hf      15.26671262      21.28180598      18.81393134       0.00000000       0.00000000       0.00000000
Hf      19.99126042      10.25776639      22.65854441       0.00000000       0.00000000       0.00000000
Hf       0.39323106      17.21350961       2.56548326       0.00000000       0.00000000       0.00000000
Hf       4.80680373      16.59301672      21.43602796       0.00000000       0.00000000       0.00000000
Hf      10.46535144      20.89458772       2.95855279       0.00000000       0.00000000       0.00000000
Hf      11.58036422      13.58917355       3.79844394       0.00000000       0.00000000       0.00000000
Hf      22.84732204       7.03677540      19.41369288       0.00000000       0.00000000       0.00000000
Hf       6.67573540       4.30449772       1.35733879       0.00000000       0.00000000       0.00000000
Hf      14.38254645      20.53846588      21.80894214       0.00000000       0.00000000       0.00000000
Hf      20.75464376       3.20782633       0.70865413       0.00000000       0.00000000       0.00000000
Hf      20.42276842       5.09568061       2.98881657       0.00000000       0.00000000       0.00000000
Hf      17.62339047      11.55675442       1.31090963       0.00000000       0.00000000       0.00000000
Nb       5.48301659      19.45488350      20.67799498       0.00000000       0.00000000       0.00000000
Nb       4.00136033      11.16426759      19.82352127       0.00000000       0.00000000       0.00000000
Nb       2.99422716       2.48512296       3.54925283       0.00000000       0.00000000       0.00000000
Nb      16.95499240       3.60623976       4.60614518       0.00000000       0.00000000       0.00000000
Nb      19.22385630       5.69829986      18.61108176       0.00000000       0.00000000       0.00000000
Nb      15.16367759       2.96231692       0.47246271       0.00000000       0.00000000       0.00000000
Nb       0.87820413       2.11159002      21.89245493       0.00000000       0.00000000       0.00000000
Nb      15.27687004       7.81191308       4.61020202       0.00000000       0.00000000       0.00000000
Nb      19.06908646       7.19237358       0.87637203       0.00000000       0.00000000       0.00000000
Nb      19.06121583       4.80080400      21.81228248       0.00000000       0.00000000       0.00000000
Nb      22.76365821       9.07007860      21.59101329       0.00000000       0.00000000       0.00000000
Nb      16.59052127       9.62457132      21.57574742       0.00000000       0.00000000       0.00000000
Nb      16.17344543      14.16522254      18.87473115       0.00000000       0.00000000       0.00000000
Nb      21.64448108      16.53297939      21.07566904       0.00000000       0.00000000       0.00000000
Nb       1.58340221      20.10258899       1.53504533       0.00000000       0.00000000       0.00000000
Nb       7.58393384      22.12515289       3.92783995       0.00000000       0.00000000       0.00000000
Nb      12.26607568       3.99865320       1.17281829       0.00000000       0.00000000       0.00000000
Nb      13.43832598      19.91255855       1.92658784       0.00000000       0.00000000       0.00000000
Nb       6.67004511      18.99306736       4.60987947       0.00000000       0.00000000       0.00000000
Nb       4.73795272      18.78408064       0.47721727       0.00000000       0.00000000       0.00000000
Nb      22.47071402      16.22627993       5.40538737       0.00000000       0.00000000       0.00000000
Nb       9.55389388      17.76238828       3.98065237       0.00000000       0.00000000       0.00000000
Nb       3.80888538       3.26920498       0.20482966       0.00000000       0.00000000       0.00000000
Nb      18.11393686       8.63801780       6.22411780       0.00000000       0.00000000       0.00000000
Nb      22.60049980      19.52438840      20.35149921       0.00000000       0.00000000       0.00000000
Nb       8.38743303       6.05406846      18.12038349       0.00000000       0.00000000       0.00000000
Nb      17.89220980      16.85934355       2.51411113       0.00000000       0.00000000       0.00000000
Nb       9.42791195      20.19804993       5.99579097       0.00000000       0.00000000       0.00000000
Nb      19.26183398      12.98787973      17.71650890       0.00000000       0.00000000       0.00000000
Nb      20.62958293      18.28977463       3.91709597       0.00000000       0.00000000       0.00000000
Nb       8.63784557      14.81929363       4.38473205       0.00000000       0.00000000       0.00000000
Nb       1.67167897      15.50365904      20.35492182       0.00000000       0.00000000       0.00000000
Nb      17.83565212       4.24932130       1.60976682       0.00000000       0.00000000       0.00000000
Nb      22.82869987      22.06406272      22.54649941       0.00000000       0.00000000       0.00000000
Nb      14.10978090      10.43513265       0.25796734       0.00000000       0.00000000       0.00000000
Nb       3.76356284      21.31594251      18.71861104       0.00000000       0.00000000       0.00000000
Nb      18.87237730      19.81376998       1.98695108       0.00000000       0.00000000       0.00000000
Nb       4.75931019      13.16963116       6.35965003       0.00000000       0.00000000       0.00000000
Nb      19.63245673       4.59508367       5.90976700       0.00000000       0.00000000       0.00000000
Nb      21.62132610       5.91004262      22.45958295       0.00000000       0.00000000       0.00000000
Nb      10.43220225       0.26875332       5.15671787       0.00000000       0.00000000       0.00000000
Nb      12.03138205       8.50395358       5.79862249       0.00000000       0.00000000       0.00000000
Nb      13.16427346      22.07521370       4.24188936       0.00000000       0.00000000       0.00000000
Nb       8.43393762       8.11702404      20.36475797       0.00000000       0.00000000       0.00000000
Nb       5.40938223       9.15958439      21.55973911       0.00000000       0.00000000       0.00000000
Nb      11.51297197       0.96273412       2.38692415       0.00000000       0.00000000       0.00000000
Nb      19.54596230       2.47352091       3.53224413       0.00000000       0.00000000       0.00000000
Nb       3.49629398      18.22284799       3.50308994       0.00000000       0.00000000       0.00000000
Nb       5.34874641      11.46760857       0.93462080       0.00000000       0.00000000       0.00000000
Nb       7.20003458       5.36767904      20.96575638       0.00000000       0.00000000       0.00000000
Nb      20.11405492      20.99024602      21.57094150       0.00000000       0.00000000       0.00000000
Nb      13.10044755       7.38044329       0.83050466       0.00000000       0.00000000       0.00000000
Ta       2.61100012      15.45433236       4.20243572       0.00000000       0.00000000       0.00000000
Ta      16.56260111       1.21905501      18.25633949       0.00000000       0.00000000       0.00000000
Ta       9.57464693      15.67336142       1.56897348       0.00000000       0.00000000       0.00000000
Ta      20.81546336       0.81741072      20.90544821       0.00000000       0.00000000       0.00000000
Ta      20.79786488      20.57114067       6.06684232       0.00000000       0.00000000       0.00000000
Ta       9.46378924      21.10578128      18.56694026       0.00000000       0.00000000       0.00000000
Ta      13.61822851      17.21946772      22.78878794       0.00000000       0.00000000       0.00000000
Ta      12.04579615      12.38126953      21.20393230       0.00000000       0.00000000       0.00000000
Ta      22.66758713      13.87425958       3.51528265       0.00000000       0.00000000       0.00000000
Ta      13.12552511      13.21336415      18.26377177       0.00000000       0.00000000       0.00000000
Ta       4.41990840      21.42116564       2.81162391       0.00000000       0.00000000       0.00000000
Ta      17.03994109      16.09469172       5.47778640       0.00000000       0.00000000       0.00000000
Ta      19.68750074      18.25910589      18.98681172       0.00000000       0.00000000       0.00000000
Ta      10.21575456       8.54928966       1.73200564       0.00000000       0.00000000       0.00000000
Ta       7.54135159      13.22745038      17.94194624       0.00000000       0.00000000       0.00000000
Ta       8.31628603      12.53279124       2.20630190       0.00000000       0.00000000       0.00000000
Ta      16.98456333      21.54423842       0.20023646       0.00000000       0.00000000       0.00000000
Ta       7.76499651      12.10313931       5.61430738       0.00000000       0.00000000       0.00000000
Ta      18.13804203       1.98710401      22.19032697       0.00000000       0.00000000       0.00000000
Ta       8.22156215       4.79833989       5.16645277       0.00000000       0.00000000       0.00000000
Ta      18.18075094      22.29790730      20.09964807       0.00000000       0.00000000       0.00000000
Ta       7.38299604       7.42977620       0.39387465       0.00000000       0.00000000       0.00000000
Ta       2.99183983       6.07378178      17.85826477       0.00000000       0.00000000       0.00000000
Ta       4.71088581       1.96206695      17.76065891       0.00000000       0.00000000       0.00000000
Ta      11.68545922      21.68108455       0.20928913       0.00000000       0.00000000       0.00000000
Ta      10.98448143      11.57376665       1.01174239       0.00000000       0.00000000       0.00000000
Ta      14.75062860       9.30907403      17.75852088       0.00000000       0.00000000       0.00000000
Ta       2.16690085       3.26754030      18.80816667       0.00000000       0.00000000       0.00000000
Ta      14.95110481       0.78022924      20.88923446       0.00000000       0.00000000       0.00000000
Ta       7.73469149       1.43112904       6.15056217       0.00000000       0.00000000       0.00000000
Ta      20.14087585      12.66999745       2.40166326       0.00000000       0.00000000       0.00000000
Ta      17.93265074      14.69405592       0.07902599       0.00000000       0.00000000       0.00000000
Ta       8.09266907      10.10482856      22.87141196       0.00000000       0.00000000       0.00000000
Ta      19.52083615       9.75275898       3.15653401       0.00000000       0.00000000       0.00000000
Ta       1.27243455      17.89032060      22.39625247       0.00000000       0.00000000       0.00000000
Ta       2.44300273      18.22701500      19.51540763       0.00000000       0.00000000       0.00000000
Ta       7.53356662      15.05748705      20.28017366       0.00000000       0.00000000       0.00000000
Ta      14.25108916      12.78402296       2.19843641       0.00000000       0.00000000       0.00000000
Ta       3.62495805       7.92657308       4.59636638       0.00000000       0.00000000       0.00000000
Ta      22.02488216       1.45495547      18.00761107       0.00000000       0.00000000       0.00000000
Ta       4.68807972      14.30178519      19.02921146       0.00000000       0.00000000       0.00000000
Ta      13.98490690       8.22598933      20.66604799       0.00000000       0.00000000       0.00000000
Ta      22.16703858      21.67281267       2.40544308       0.00000000       0.00000000       0.00000000
Ta       5.26843678      13.51288285       3.26606230       0.00000000       0.00000000       0.00000000
Ta      11.40273018      17.26036280      18.33310340       0.00000000       0.00000000       0.00000000
Ta       0.90193911      11.77238348      21.21662755       0.00000000       0.00000000       0.00000000
Ta      14.43930566      14.91364281       4.73214058       0.00000000       0.00000000       0.00000000
Ta      13.13911582       2.99327737      19.04264082       0.00000000       0.00000000       0.00000000
Ta       7.27827373       9.62201112       2.95155847       0.00000000       0.00000000       0.00000000
Ta      16.18460702       3.55767653      20.33978536       0.00000000       0.00000000       0.00000000
Ta       6.65928449      10.02844413      18.35856572       0.00000000       0.00000000       0.00000000
Ta      22.59105776       5.98137126       6.38766246       0.00000000       0.00000000       0.00000000
Ta      16.22845456      16.32322467      21.17196823       0.00000000       0.00000000       0.00000000
Ta       0.07948029       1.50466877       2.20184736       0.00000000       0.00000000       0.00000000
Ta      14.29177124      22.89099111       1.34471747       0.00000000       0.00000000       0.00000000
Ta       9.43488882       0.33912440      20.83407584       0.00000000       0.00000000       0.00000000
Ta       2.70169932      20.46946459      21.72292758       0.00000000       0.00000000       0.00000000
Ta       1.53686970       4.91707449      21.42204992       0.00000000       0.00000000       0.00000000
Ta      11.28024461       9.21988273      21.98465781       0.00000000       0.00000000       0.00000000
Ta      11.40000381       6.92268509      19.12855659       0.00000000       0.00000000       0.00000000
Ta       6.41380864      12.13864021      21.19513258       0.00000000       0.00000000       0.00000000
Ti       1.74012604      22.80966408       4.01476058       0.00000000       0.00000000       0.00000000
Ti      16.06719400       0.39271061       5.42950916       0.00000000       0.00000000       0.00000000
Ti      16.70269157       6.84375369      19.71220429       0.00000000       0.00000000       0.00000000
Ti       2.63012888       4.87723324       5.61376838       0.00000000       0.00000000       0.00000000
Ti       0.60372745      18.98296092       5.35544887       0.00000000       0.00000000       0.00000000
Ti       4.74569336       6.22094576      22.35335793       0.00000000       0.00000000       0.00000000
Ti      21.20855124      21.76043229      18.76201988       0.00000000       0.00000000       0.00000000
Ti       6.53772947      16.79752069       2.74401637       0.00000000       0.00000000       0.00000000
Ti       8.65362874      22.78438246       0.86310493       0.00000000       0.00000000       0.00000000
Ti       9.51305942       3.61739764      22.47882709       0.00000000       0.00000000       0.00000000
Ti      15.55083776      15.56882511       1.69834088       0.00000000       0.00000000       0.00000000
Ti       5.72029703       3.05437736       4.97785556       0.00000000       0.00000000       0.00000000
Ti      22.85074381      11.62679219       1.16478049       0.00000000       0.00000000       0.00000000
Ti       5.80366099      15.82622644       5.57936968       0.00000000       0.00000000       0.00000000
Ti       2.07706788      11.86623290       5.28235502       0.00000000       0.00000000       0.00000000
Ti      21.91462736       6.45415475      18.90605513       0.00000000       0.00000000       0.00000000
Ti      10.25995704       4.31590499      19.92572002       0.00000000       0.00000000       0.00000000
Ti      20.99618605      13.38834859      21.89024882       0.00000000       0.00000000       0.00000000
Ti      17.09891958      13.83785372       3.44337613       0.00000000       0.00000000       0.00000000
Ti       9.41854407      11.22827334      19.93745130       0.00000000       0.00000000       0.00000000
Ti      21.78353233      14.29458099      19.04018890       0.00000000       0.00000000       0.00000000
Ti       8.98850142      13.19766553      22.15962178       0.00000000       0.00000000       0.00000000
Ti       8.69305484       2.49440078       3.12447864       0.00000000       0.00000000       0.00000000
Ti       2.93052043      10.34576942       0.01987729       0.00000000       0.00000000       0.00000000
Ti      22.22323823       1.07423635       4.73622969       0.00000000       0.00000000       0.00000000
Ti       4.65729932       8.32285941       1.50016228       0.00000000       0.00000000       0.00000000
Ti      20.93279269       7.66716123       4.79034765       0.00000000       0.00000000       0.00000000
Ti      15.32634770      11.76812305      19.86601454       0.00000000       0.00000000       0.00000000
Ti       9.16219645       7.63752052       4.76944598       0.00000000       0.00000000       0.00000000
Ti      16.25813168      18.64113315       0.58238258       0.00000000       0.00000000       0.00000000
Ti       3.90528593       5.56852043       2.42183339       0.00000000       0.00000000       0.00000000
Ti      15.29027036      13.57270440      22.25949465       0.00000000       0.00000000       0.00000000
Ti       6.55516011      22.24123131      19.77185847       0.00000000       0.00000000       0.00000000
Ti       6.77047036      20.00230657      17.75198556       0.00000000       0.00000000       0.00000000
Ti       4.01220670       0.56000478      20.26381495       0.00000000       0.00000000       0.00000000
Ti      10.04040295       6.35136729      22.25225506       0.00000000       0.00000000       0.00000000
Zr       0.08744858       3.79684027       4.60229747       0.00000000       0.00000000       0.00000000
Zr       0.89105053      12.91190747      20.74276196       0.00000000       0.00000000       0.00000000
Zr      13.17667537      11.62799071       5.50474530       0.00000000       0.00000000       0.00000000
Zr      13.18616374       5.27016847      21.40079538       0.00000000       0.00000000       0.00000000
Zr       5.67968807       1.50161048       2.20130063       0.00000000       0.00000000       0.00000000
Zr      13.92324361      18.41874786      19.45394170       0.00000000       0.00000000       0.00000000
Zr       0.98743844       4.47542346       1.53382038       0.00000000       0.00000000       0.00000000
Zr      19.96479909      15.20262620       4.66338607       0.00000000       0.00000000       0.00000000
Zr       1.08948835       8.96517482       5.94692220       0.00000000       0.00000000       0.00000000
Zr      12.26347755      14.32460029       0.69084518       0.00000000       0.00000000       0.00000000
Zr      14.06600347       2.35909942       3.46669689       0.00000000       0.00000000       0.00000000
Zr      21.80297064      18.95995371       0.42942153       0.00000000       0.00000000       0.00000000
Zr       2.80481905       8.06744985      20.55146525       0.00000000       0.00000000       0.00000000
Zr       6.59805174      14.39232170       0.66639885       0.00000000       0.00000000       0.00000000
Zr      13.31971080      15.24797278      20.42706568       0.00000000       0.00000000       0.00000000
Zr      15.07171918      20.42266759       6.18164222       0.00000000       0.00000000       0.00000000
Zr      18.94307168      11.99545943       5.35606112       0.00000000       0.00000000       0.00000000
Zr       7.64134890       2.87380570      18.98627193       0.00000000       0.00000000       0.00000000
Zr      16.89758649      17.29786595      17.96225983       0.00000000       0.00000000       0.00000000
Zr      15.84141552      20.97750959       3.26598462       0.00000000       0.00000000       0.00000000
Zr       4.62562644      10.84982718       4.31350762       0.00000000       0.00000000       0.00000000
Zr      12.43146350      19.14836149       5.32176590       0.00000000       0.00000000       0.00000000
Zr       8.48022336      18.15085752      19.47070205       0.00000000       0.00000000       0.00000000
Zr      18.95877513      22.21622227       4.42579646       0.00000000       0.00000000       0.00000000
Zr      21.93218874      10.57739355       4.24126211       0.00000000       0.00000000       0.00000000
Zr       2.64554009       0.19552417       1.03102187       0.00000000       0.00000000       0.00000000
Zr      20.50082822      15.93321626       1.45143180       0.00000000       0.00000000       0.00000000
Zr       5.44260754      21.81448137      22.65071182       0.00000000       0.00000000       0.00000000
Zr       4.54150882       0.63049714       5.26166385       0.00000000       0.00000000       0.00000000
Zr      14.11543901       5.82311816      18.40562035       0.00000000       0.00000000       0.00000000
Zr      21.74165880      12.87472491       6.38055768       0.00000000       0.00000000       0.00000000
Zr       2.18077003      13.09444415      17.80008066       0.00000000       0.00000000       0.00000000
Zr      22.57718760      17.12416657      17.94230041       0.00000000       0.00000000       0.00000000
Zr      21.85450102       3.60090512      20.40339464       0.00000000       0.00000000       0.00000000
Zr      10.42935330       1.62985329      17.86198668       0.00000000       0.00000000       0.00000000
Zr      21.15065295      10.92317689      19.44149219       0.00000000       0.00000000       0.00000000
Zr       1.97195923       7.47633882       0.33065744       0.00000000       0.00000000       0.00000000
Zr      19.59878579       7.95878419      20.47996622       0.00000000       0.00000000       0.00000000
Zr       8.62116973      20.64702970      21.59397910       0.00000000       0.00000000       0.00000000
Zr       6.72521109       2.27440798      21.88066705       0.00000000       0.00000000       0.00000000
Zr      16.85049020      19.19884419      20.56034210       0.00000000       0.00000000       0.00000000
Zr      19.05789739       2.42405879      19.07973687       0.00000000       0.00000000       0.00000000
Zr       9.99565217      14.01473939      19.25843602       0.00000000       0.00000000       0.00000000
Zr       1.65137890       9.82237918       2.75793425       0.00000000       0.00000000       0.00000000
C        2.99309933      11.57249810      15.99483273       0.00000000       0.00000000       0.00000000
C        4.06102719      19.52225407       6.92962384       0.00000000       0.00000000       0.00000000
C       14.94678171      12.69652592      16.33509565       0.00000000       0.00000000       0.00000000
C       10.58138619      21.11081743      11.90519923       0.00000000       0.00000000       0.00000000
C        6.66365748       2.77173003       7.43785791       0.00000000       0.00000000       0.00000000
C        9.96194241      12.64486358       7.69049972       0.00000000       0.00000000       0.00000000
C        9.85754392       0.34554286       6.55510952       0.00000000       0.00000000       0.00000000
C        9.88460133      11.75552335      17.51557112       0.00000000       0.00000000       0.00000000
C        8.80490700      14.13622332      11.88769528       0.00000000       0.00000000       0.00000000
C        2.42606182      22.31577747       7.06159856       0.00000000       0.00000000       0.00000000
C        7.02151401       5.97947692       9.97809130       0.00000000       0.00000000       0.00000000
C        2.67522530       3.98442642      11.94680123       0.00000000       0.00000000       0.00000000
C       14.36967024      14.30711026       6.50817809       0.00000000       0.00000000       0.00000000
C       14.71997478      13.42275227      10.73298421       0.00000000       0.00000000       0.00000000
C       17.76085408      21.85094024      13.69082092       0.00000000       0.00000000       0.00000000
C        0.70631152       3.14164821      11.04158506       0.00000000       0.00000000       0.00000000
C        7.71513769      10.04580840       7.30041346       0.00000000       0.00000000       0.00000000
C        8.67779707       3.63578097      13.13686374       0.00000000       0.00000000       0.00000000
C       11.30475044       2.22208773      12.85031182       0.00000000       0.00000000       0.00000000
C        1.99442155      16.78255294       8.21114748       0.00000000       0.00000000       0.00000000
C        6.93562670      13.52689675       7.26530866       0.00000000       0.00000000       0.00000000
C        1.76242030      20.60123990      15.40822230       0.00000000       0.00000000       0.00000000
C       10.94594705       4.39793405      14.96349286       0.00000000       0.00000000       0.00000000
C        7.56598990      11.28955709      10.13891147       0.00000000       0.00000000       0.00000000
C        9.12741759       4.20485176       7.69086973       0.00000000       0.00000000       0.00000000
C        3.52826920      11.23898439       9.96593940       0.00000000       0.00000000       0.00000000
C        4.76044874       0.20305594       8.39328551       0.00000000       0.00000000       0.00000000
C       15.82170872       7.12026522      15.75247976       0.00000000       0.00000000       0.00000000
C        5.54442570       8.99222416      10.48222063       0.00000000       0.00000000       0.00000000
Ti      15.99949685      20.36540978      10.44965693       0.00000000       0.00000000       0.00000000
Ti       0.48144062       6.28195362      12.81529598       0.00000000       0.00000000       0.00000000
Ti       4.84723939      18.38669676      15.64808622       0.00000000       0.00000000       0.00000000
Ti      16.28122437      11.90129414       7.28288116       0.00000000       0.00000000       0.00000000
Ti      16.25560589       0.20502961       7.28672346       0.00000000       0.00000000       0.00000000
Ti      14.99371327       9.79277506      12.49864040       0.00000000       0.00000000       0.00000000
Ti      16.94099587       1.75901984      16.58513315       0.00000000       0.00000000       0.00000000
C       10.81933947      11.37913085       7.29169739       0.00000000       0.00000000       0.00000000
C        2.46799239      21.30291681      11.45541478       0.00000000       0.00000000       0.00000000
C        1.88527232      17.46006379      17.05242869       0.00000000       0.00000000       0.00000000
C        3.74763730       3.96248289      12.64245922       0.00000000       0.00000000       0.00000000
C       11.61871280      17.26577718      10.77151792       0.00000000       0.00000000       0.00000000
C       13.97585076      10.17607607      13.46504328       0.00000000       0.00000000       0.00000000
C       15.22355658      16.51023842      16.25100198       0.00000000       0.00000000       0.00000000
C        5.10931136      15.82053033      16.12051344       0.00000000       0.00000000       0.00000000
C        9.61270323       3.87538887       6.44415201       0.00000000       0.00000000       0.00000000
C        2.40753745      21.94657772      12.72209927       0.00000000       0.00000000       0.00000000
C        8.09958995      19.88148102       9.65501996       0.00000000       0.00000000       0.00000000
C        9.56125379      10.52581010      13.12729056       0.00000000       0.00000000       0.00000000
C       14.25161934       1.66339431      15.11274732       0.00000000       0.00000000       0.00000000
C        9.35390534       6.15740203      16.49888452       0.00000000       0.00000000       0.00000000
C       13.67858378       7.91127117      10.70215367       0.00000000       0.00000000       0.00000000
C       17.38963143       6.48856687       6.70343561       0.00000000       0.00000000       0.00000000
C       16.93923903      15.89011192       8.44793701       0.00000000       0.00000000       0.00000000
C       13.81176431       5.21750438       9.40296579       0.00000000       0.00000000       0.00000000
C       14.84852260      12.34026008      15.10699363       0.00000000       0.00000000       0.00000000
C       13.00603174      14.30385872       8.19564069       0.00000000       0.00000000       0.00000000
C        7.18999025       0.06315965       7.16999574       0.00000000       0.00000000       0.00000000
C        3.94424320      18.67416831      10.06842576       0.00000000       0.00000000       0.00000000
C        1.39767785      14.64945310       9.82922126       0.00000000       0.00000000       0.00000000
C        0.83417451      12.37618574      14.31499855       0.00000000       0.00000000       0.00000000
C        5.71214751      20.21952625      12.12342809       0.00000000       0.00000000       0.00000000
C       11.07538289      16.46568910       6.82020151       0.00000000       0.00000000       0.00000000
C       14.91177009       0.47369880      15.43288548       0.00000000       0.00000000       0.00000000
C        0.29322530       9.46874050      17.23741856       0.00000000       0.00000000       0.00000000
C        4.48156275      22.77592206      15.15844742       0.00000000       0.00000000       0.00000000
C       13.71219017      12.26499111       9.83994881       0.00000000       0.00000000       0.00000000
C       17.15751642      19.61113248       6.51592622       0.00000000       0.00000000       0.00000000
C       17.60877870       4.95744209      12.56564963       0.00000000       0.00000000       0.00000000
C       10.96342999       8.76124901      15.49217077       0.00000000       0.00000000       0.00000000
C        1.14953404       6.10058245       8.17344551       0.00000000       0.00000000       0.00000000
C       12.73458712      17.73549643      13.53687908       0.00000000       0.00000000       0.00000000
C       17.70038065       3.93197241      17.16229335       0.00000000       0.00000000       0.00000000
C        8.59201251      11.23342011      13.93015345       0.00000000       0.00000000       0.00000000
C        3.60508687       7.12069962      12.06123914       0.00000000       0.00000000       0.00000000
C       15.81541817       1.60655542       8.53247187       0.00000000       0.00000000       0.00000000
C        9.34802834       0.37324448      10.72899727       0.00000000       0.00000000       0.00000000
C       17.69383476      19.22296379      12.88865023       0.00000000       0.00000000       0.00000000
C       14.60886484      20.24502559      10.64838185       0.00000000       0.00000000       0.00000000
C       15.29624948      17.36181526      11.50087995       0.00000000       0.00000000       0.00000000
C       14.63215157       4.86038974      16.82895909       0.00000000       0.00000000       0.00000000
C        9.32919987      17.53018911      12.96011819       0.00000000       0.00000000       0.00000000
C        8.94485290      21.10940474      13.79866331       0.00000000       0.00000000       0.00000000
C        0.01997356       3.02043371      15.42778012       0.00000000       0.00000000       0.00000000
C       15.73057828       4.59327961      13.65891582       0.00000000       0.00000000       0.00000000
C        3.37232695       0.60185336       8.10598874       0.00000000       0.00000000       0.00000000
C        4.85673928      22.74552372      10.59669880       0.00000000       0.00000000       0.00000000
C       11.50813229      19.12547687      10.35660631       0.00000000       0.00000000       0.00000000
C       15.26706793       9.13384957       8.24648636       0.00000000       0.00000000       0.00000000
C        1.01913282       2.35911702      15.28297852       0.00000000       0.00000000       0.00000000
C        9.53423517      22.85879017      17.37935810       0.00000000       0.00000000       0.00000000
C       11.70980770       8.68620270      11.92931047       0.00000000       0.00000000       0.00000000
C        5.05515303      17.40372407      16.69447060       0.00000000       0.00000000       0.00000000
C        6.91893802      11.09029925      13.68404650       0.00000000       0.00000000       0.00000000
C       14.25214137      14.83050232       7.90424313       0.00000000       0.00000000       0.00000000
C        0.48822727       8.77831085      14.39198977       0.00000000       0.00000000       0.00000000
C       16.60982208      18.56463104      13.68601215       0.00000000       0.00000000       0.00000000
C        0.31624565      14.01213037       7.36548796       0.00000000       0.00000000       0.00000000
C       11.36710709      13.23753102      14.73798084       0.00000000       0.00000000       0.00000000
C        3.68336095       8.61842182      13.69578873       0.00000000       0.00000000       0.00000000
C        6.57321680       5.95562301      13.46644199       0.00000000       0.00000000       0.00000000
C       16.17897444      20.81386645       6.47376639       0.00000000       0.00000000       0.00000000
C        1.76487668      14.36835727      11.56314938       0.00000000       0.00000000       0.00000000
C        3.05743011       6.23982904      15.71887598       0.00000000       0.00000000       0.00000000
C        3.35122152      14.82984322      12.33910185       0.00000000       0.00000000       0.00000000
C       14.56327150       2.18659050       8.15056856       0.00000000       0.00000000       0.00000000
C        4.92010998      19.38783919      14.69160914       0.00000000       0.00000000       0.00000000
C        2.57463718       0.30054366      16.90556214       0.00000000       0.00000000       0.00000000
C        6.51564445       6.67448135       9.08584858       0.00000000       0.00000000       0.00000000
C       11.84438384       7.87932196      15.78786715       0.00000000       0.00000000       0.00000000
C       13.83139067      17.53932805       8.84294966       0.00000000       0.00000000       0.00000000
C        8.87336626       7.04050369      12.94669014       0.00000000       0.00000000       0.00000000
C       12.29969665       1.08088192       9.02761664       0.00000000       0.00000000       0.00000000
C        9.69268684      17.86945050      16.72501612       0.00000000       0.00000000       0.00000000
C        3.31842073      15.73552560      13.45544661       0.00000000       0.00000000       0.00000000
C       15.77848277      16.19897590      15.16432358       0.00000000       0.00000000       0.00000000
C        4.02602532      12.72327201      15.49648445       0.00000000       0.00000000       0.00000000
C        7.90675975       0.96420087      15.10167375       0.00000000       0.00000000       0.00000000
C        3.31948511       7.00494642      10.75314548       0.00000000       0.00000000       0.00000000
C        8.22258893      17.36755868      17.50579053       0.00000000       0.00000000       0.00000000
C        7.76783985       3.55900021       8.26110279       0.00000000       0.00000000       0.00000000
C        6.61725909      16.21178074      11.60440162       0.00000000       0.00000000       0.00000000
C        8.33910745      19.65355776       6.82307847       0.00000000       0.00000000       0.00000000
C       12.62239058      16.53737124      14.13761047       0.00000000       0.00000000       0.00000000
C        2.71787867      19.92813062       7.54313520       0.00000000       0.00000000       0.00000000
C       14.27448451      21.98967666      15.31140253       0.00000000       0.00000000       0.00000000
C        8.62601943       0.74120008      13.87636954       0.00000000       0.00000000       0.00000000
C       11.45251422      11.45251422      11.96281572       0.00000000       0.00000000       0.00000000
C        6.46684615       9.89152515       7.16055053       0.00000000       0.00000000       0.00000000
C        5.67109232      22.24278465       7.96772046       0.00000000       0.00000000       0.00000000
C       10.45975680       5.63442100      10.08035686       0.00000000       0.00000000       0.00000000
C        9.41659048      21.91040957      12.46635418       0.00000000       0.00000000       0.00000000
C        6.43811034       3.51486226      10.64104988       0.00000000       0.00000000       0.00000000
C       13.42810155      20.01968860       6.70564334       0.00000000       0.00000000       0.00000000
C       17.46293553      11.64816173       7.22032842       0.00000000       0.00000000       0.00000000
C       10.56018513      22.42872978       7.55329619       0.00000000       0.00000000       0.00000000
C        0.27025301       3.47511386       9.79839435       0.00000000       0.00000000       0.00000000
C        8.09767989       0.30955930      10.34702776       0.00000000       0.00000000       0.00000000
C        8.10416940      11.95663230       7.39902293       0.00000000       0.00000000       0.00000000
C        6.05313552      16.21327089       7.66005090       0.00000000       0.00000000       0.00000000
C        5.99744700      16.06066339      10.39480332       0.00000000       0.00000000       0.00000000
C        4.06176816       3.33706066      13.88477546       0.00000000       0.00000000       0.00000000
C        1.88011695       8.90948836       7.11543067       0.00000000       0.00000000       0.00000000
C        0.43075818      20.18850422      15.26182908       0.00000000       0.00000000       0.00000000
C        8.43448052       2.91373876      14.53979628       0.00000000       0.00000000       0.00000000
C        9.80462594      17.68767654       8.32674389       0.00000000       0.00000000       0.00000000
C       16.93107770       2.42883911      10.67641987       0.00000000       0.00000000       0.00000000
C       13.96714659       5.07303553      10.71248540       0.00000000       0.00000000       0.00000000
Hf       7.72656744      10.11788767      15.89659518       0.00000000       0.00000000       0.00000000
Hf      16.04523918       0.07178850      17.41663353       0.00000000       0.00000000       0.00000000
Hf       5.60155021       1.98830887       9.06411118       0.00000000       0.00000000       0.00000000
Hf      17.25274634      14.12758247      10.62868186       0.00000000       0.00000000       0.00000000
Hf       4.15077849      21.04884886       8.72559245       0.00000000       0.00000000       0.00000000
Hf       9.12595025      12.63969926      10.37111234       0.00000000       0.00000000       0.00000000
Hf       1.69182246       3.98811696       8.13603128       0.00000000       0.00000000       0.00000000
Hf       6.81459874      12.76986991      11.57222868       0.00000000       0.00000000       0.00000000
Hf      15.74410472       3.23484585      16.03908539       0.00000000       0.00000000       0.00000000
Hf       6.43885097      21.84314207      14.93987354       0.00000000       0.00000000       0.00000000
Hf       2.11630782       9.64866061      15.05278021       0.00000000       0.00000000       0.00000000
Hf       8.87494033       1.47032088       7.96677715       0.00000000       0.00000000       0.00000000
Hf       6.18991417      11.75053585       8.45401891       0.00000000       0.00000000       0.00000000
Hf      13.77701487       7.68022909      12.69936612       0.00000000       0.00000000       0.00000000
Hf       1.52275608      10.95920143       7.57731088       0.00000000       0.00000000       0.00000000
Hf       2.64224488       0.91051973      14.90113676       0.00000000       0.00000000       0.00000000
Hf       2.94383972       7.91126370      17.50495799       0.00000000       0.00000000       0.00000000
Hf      14.40840282       2.51949221      10.33534990       0.00000000       0.00000000       0.00000000
Hf       8.90899255      19.36088600      15.18142892       0.00000000       0.00000000       0.00000000
Hf      11.60778991       0.52812306      10.86022602       0.00000000       0.00000000       0.00000000
Hf       6.77945796      18.53383753      11.18635179       0.00000000       0.00000000       0.00000000
Hf      13.11912307      18.15576764      15.81383206       0.00000000       0.00000000       0.00000000
Hf      10.44468896      19.96231313       7.53233413       0.00000000       0.00000000       0.00000000
Hf       7.51481414      21.44788981       8.14579840       0.00000000       0.00000000       0.00000000
Hf       2.05703676      17.19500594      14.80351381       0.00000000       0.00000000       0.00000000
Hf      11.75870257      13.27731533       9.86912851       0.00000000       0.00000000       0.00000000
Hf      12.84050637       1.17736546      16.36732550       0.00000000       0.00000000       0.00000000
Hf       5.97966325       1.20827700      16.28179523       0.00000000       0.00000000       0.00000000
Nb       1.73405806      22.64665623       9.04889967       0.00000000       0.00000000       0.00000000
Nb      11.72429790       9.92568786      13.20860700       0.00000000       0.00000000       0.00000000
Nb      16.35706464       7.83325345       9.80219902       0.00000000       0.00000000       0.00000000
Nb      10.70191579       9.84120526      10.65256629       0.00000000       0.00000000       0.00000000
Nb      14.34078331       4.13951264       7.59526016       0.00000000       0.00000000       0.00000000
Nb       9.40621390      18.54072429      10.07078873       0.00000000       0.00000000       0.00000000
Nb       1.04709129      21.36039120      17.43620412       0.00000000       0.00000000       0.00000000
Nb       9.89797819       6.43921805      14.64498624       0.00000000       0.00000000       0.00000000
Nb      10.63856954       9.26170122       7.92407050       0.00000000       0.00000000       0.00000000
Nb       7.67234592      16.29091948      13.41714301       0.00000000       0.00000000       0.00000000
Nb       4.06360161       6.34447386       7.79476712       0.00000000       0.00000000       0.00000000
Nb       9.65275391      15.80939520      11.34942310       0.00000000       0.00000000       0.00000000
Nb      12.70052924       1.17262009      13.50138199       0.00000000       0.00000000       0.00000000
Nb      12.67973036      13.67974759      16.45931306       0.00000000       0.00000000       0.00000000
Nb       5.34423675      14.01681702      13.69098433       0.00000000       0.00000000       0.00000000
Nb       4.87193308      10.71284333      16.51811647       0.00000000       0.00000000       0.00000000
Nb      14.65940731       5.75836904      14.71872457       0.00000000       0.00000000       0.00000000
Nb       9.24431612       3.92878097       9.61818375       0.00000000       0.00000000       0.00000000
Nb       3.96671167      16.62275648       8.20097850       0.00000000       0.00000000       0.00000000
Nb      13.24281255       8.49171234       8.25145780       0.00000000       0.00000000       0.00000000
Nb      11.83065576       3.94893866      11.63651635       0.00000000       0.00000000       0.00000000
Nb      12.88903099       3.52963341      15.49365501       0.00000000       0.00000000       0.00000000
Nb      15.55738855       5.51826828      11.72902598       0.00000000       0.00000000       0.00000000
Nb       7.98321443      20.76562235      11.82203801       0.00000000       0.00000000       0.00000000
Nb       3.84276639      16.26661310      11.28198588       0.00000000       0.00000000       0.00000000
Nb      13.77095058      19.73781779       8.46707194       0.00000000       0.00000000       0.00000000
Ta       9.29635258       6.29420342       8.43582313       0.00000000       0.00000000       0.00000000
Ta       3.86350059      19.60062887      11.77893337       0.00000000       0.00000000       0.00000000
Ta       6.97301640       6.90172652       7.01633545       0.00000000       0.00000000       0.00000000
Ta      13.03791302      21.65486389      10.80404920       0.00000000       0.00000000       0.00000000
Ta       2.12997976      13.94778624       8.08038304       0.00000000       0.00000000       0.00000000
Ta       3.96196483      12.98383764      10.56503379       0.00000000       0.00000000       0.00000000
Ta      13.80721764       7.38258509      16.79961429       0.00000000       0.00000000       0.00000000
Ta      15.26259938      16.44573676       7.53996837       0.00000000       0.00000000       0.00000000
Ta       4.62507975       5.65089264      14.53754271       0.00000000       0.00000000       0.00000000
Ta      14.97483571      17.00043746      13.54023657       0.00000000       0.00000000       0.00000000
Ta       5.17257909      10.81718768      14.13575286       0.00000000       0.00000000       0.00000000
Ta      10.36500385       2.28854239      14.79398055       0.00000000       0.00000000       0.00000000
Ta      15.10835087       6.52026125       8.17937448       0.00000000       0.00000000       0.00000000
Ta       9.74784076      13.87051904      16.40371674       0.00000000       0.00000000       0.00000000
Ta      10.37560900      22.31804150      15.52863599       0.00000000       0.00000000       0.00000000
Ta      12.46998163      20.97488207      15.74853794       0.00000000       0.00000000       0.00000000
Ta       4.66782748      17.69528304       7.93889321       0.00000000       0.00000000       0.00000000
Ta      16.88430093       0.72872727      14.32234611       0.00000000       0.00000000       0.00000000
Ta       2.09461940       7.26852056      13.89391302       0.00000000       0.00000000       0.00000000
Ta       7.92376411       5.20264285      12.09600212       0.00000000       0.00000000       0.00000000
Ta      14.21741420       0.38696606       8.52428690       0.00000000       0.00000000       0.00000000
Ta      10.07490364      12.77996421      13.30488432       0.00000000       0.00000000       0.00000000
Ta      10.61615239      16.03899252      14.56885939       0.00000000       0.00000000       0.00000000
Ta      16.13532354      20.77309351      15.86185266       0.00000000       0.00000000       0.00000000
Ta      13.54133792      18.40744627      11.02269707       0.00000000       0.00000000       0.00000000
Ta       0.86960070       3.86787890      13.26246274       0.00000000       0.00000000       0.00000000
Ta       7.14117772       8.92838948       9.30026367       0.00000000       0.00000000       0.00000000
Ti       1.78454171      17.22926731      10.44152056       0.00000000       0.00000000       0.00000000
Ti       5.58435297       7.60780512      12.63384057       0.00000000       0.00000000       0.00000000
Ti      13.33329440      22.46383877       7.88828348       0.00000000       0.00000000       0.00000000
Ti      10.14046840      15.51130180       8.73313753       0.00000000       0.00000000       0.00000000
Ti       1.19174204      12.67823843      16.05792198       0.00000000       0.00000000       0.00000000
Ti       9.45608588       1.74230579      12.07909182       0.00000000       0.00000000       0.00000000
Ti      16.06360951      18.11355860       9.25435469       0.00000000       0.00000000       0.00000000
Ti       6.78883812      16.48217871      17.11626823       0.00000000       0.00000000       0.00000000
Ti       1.58102898       8.09604485       8.78330820       0.00000000       0.00000000       0.00000000
Ti       4.44388482       8.87045626       7.32113361       0.00000000       0.00000000       0.00000000
Ti      11.77568081      13.04574905       6.73623268       0.00000000       0.00000000       0.00000000
Ti       2.59781983      14.14779259      14.34349488       0.00000000       0.00000000       0.00000000
Ti       3.44595221      20.61614851      14.40139111       0.00000000       0.00000000       0.00000000
Ti      14.35720539      12.80813213       7.76578549       0.00000000       0.00000000       0.00000000
Ti      15.95838049      20.10778037      12.64171782       0.00000000       0.00000000       0.00000000
Ti      11.86646322      17.29620365       8.70732336       0.00000000       0.00000000       0.00000000
Ti      16.81869066       9.45405754      12.82990383       0.00000000       0.00000000       0.00000000
Ti      16.96497652       3.10786739      12.25347640       0.00000000       0.00000000       0.00000000
Ti      17.68875532       0.82543566       6.43688854       0.00000000       0.00000000       0.00000000
Ti       6.77240445      13.32111233      15.83220068       0.00000000       0.00000000       0.00000000
Ti       7.60309761      17.90934506       8.19153612       0.00000000       0.00000000       0.00000000
Ti       6.34236372      21.99878267      10.85498200       0.00000000       0.00000000       0.00000000
Ti      10.14954617       7.44980440      11.47024357       0.00000000       0.00000000       0.00000000
Ti       6.04461563       4.71072309       8.07814597       0.00000000       0.00000000       0.00000000
Zr       7.71638119       9.98299801      12.08114027       0.00000000       0.00000000       0.00000000
Zr       5.70638753       2.67571288      12.54310630       0.00000000       0.00000000       0.00000000
Zr      14.10465022      15.63044398      10.31715825       0.00000000       0.00000000       0.00000000
Zr       0.65799735      21.27266988      12.08250322       0.00000000       0.00000000       0.00000000
Zr      12.29052524       2.67729777       8.08857117       0.00000000       0.00000000       0.00000000
Zr       1.28042312       0.96302377       8.81862235       0.00000000       0.00000000       0.00000000
Zr      13.38256147      10.27438895      15.63057531       0.00000000       0.00000000       0.00000000
Zr       9.65152390      22.32632322      10.12806869       0.00000000       0.00000000       0.00000000
Zr       3.77859414       3.96982664      10.16184925       0.00000000       0.00000000       0.00000000
Zr      17.04183029      12.40982083      17.29611175       0.00000000       0.00000000       0.00000000
Zr       7.23615130       4.31834696      15.86797722       0.00000000       0.00000000       0.00000000
Zr       7.23369620      15.17174353       9.20589452       0.00000000       0.00000000       0.00000000
Zr       0.67804026      20.72472615       6.92876433       0.00000000       0.00000000       0.00000000
Zr      14.99773476      22.49831802      17.20272238       0.00000000       0.00000000       0.00000000
Zr      17.22293573      21.39054507       8.86884135       0.00000000       0.00000000       0.00000000
Zr       5.16296651      17.27233312      13.57050966       0.00000000       0.00000000       0.00000000
Zr      17.39488036       4.01541582       8.03677725       0.00000000       0.00000000       0.00000000
Zr       4.71039768      20.97660800      17.12000768       0.00000000       0.00000000       0.00000000
Zr      17.48545383       8.65087974       7.45870121       0.00000000       0.00000000       0.00000000
Zr       3.14294077      10.07617803      12.00026692       0.00000000       0.00000000       0.00000000
Zr      17.66852697      16.12669493      15.28131814       0.00000000       0.00000000       0.00000000
Zr      13.42075021      10.30166284      10.58620159       0.00000000       0.00000000       0.00000000
Zr      11.01614176      19.14659200      12.77543643       0.00000000       0.00000000       0.00000000
Zr      13.06307980      12.94071906      13.39257216       0.00000000       0.00000000       0.00000000
Zr      16.05963744      14.27424179      13.50097547       0.00000000       0.00000000       0.00000000
Zr       2.19372329       4.56631340      16.29919392       0.00000000       0.00000000       0.00000000
Zr      15.64306011      11.87655524      11.89098102       0.00000000       0.00000000       0.00000000
C       19.81319851      16.49730982      14.22477480       0.00000000       0.00000000       0.00000000
C       20.33203016      18.79997743      10.33024781       0.00000000       0.00000000       0.00000000
C       21.23551145      21.30610632       9.92170850       0.00000000       0.00000000       0.00000000
C       19.27659044      21.94585163       9.57075516       0.00000000       0.00000000       0.00000000
C       18.51817344      12.95217369      15.79849871       0.00000000       0.00000000       0.00000000
C       22.73769929      10.73247544      13.77906741       0.00000000       0.00000000       0.00000000
C       18.98303803       8.96921728      12.93759777       0.00000000       0.00000000       0.00000000
C       22.28423555      16.91097507      14.81756607       0.00000000       0.00000000       0.00000000
C       18.70561957       1.65421747      13.71948003       0.00000000       0.00000000       0.00000000
C       20.95404713      19.82818023       9.59814834       0.00000000       0.00000000       0.00000000
C       22.49708518       8.25852101      12.38568431       0.00000000       0.00000000       0.00000000
C       17.99183809      21.57931497      15.25100695       0.00000000       0.00000000       0.00000000
C       21.15712483       4.07385400       7.24754379       0.00000000       0.00000000       0.00000000
C       22.17073314       2.55099266      12.97927526       0.00000000       0.00000000       0.00000000
C       21.87648558       1.39277034      15.92300215       0.00000000       0.00000000       0.00000000
C       17.89427120      12.39426083      12.61028422       0.00000000       0.00000000       0.00000000
C       22.11837399      19.39253006       6.47817000       0.00000000       0.00000000       0.00000000
C       20.27057578      12.40693426      15.62536162       0.00000000       0.00000000       0.00000000
C       21.35197105       8.14803486      15.48755265       0.00000000       0.00000000       0.00000000
C       21.44631741       7.78482056      11.76893570       0.00000000       0.00000000       0.00000000
C       18.65556238       8.97508797      11.31433254       0.00000000       0.00000000       0.00000000
C       22.34996591       7.37050606       8.77913927       0.00000000       0.00000000       0.00000000
C       20.03467197      14.50158925      11.58829374       0.00000000       0.00000000       0.00000000
C       20.56199367      13.50838253      11.08607052       0.00000000       0.00000000       0.00000000
C       18.71154465       7.19127766      13.74138212       0.00000000       0.00000000       0.00000000
C       22.87354739      13.91521791       8.96445835       0.00000000       0.00000000       0.00000000
C       21.83842209      22.15375907      15.86729369       0.00000000       0.00000000       0.00000000
C       17.80801972      21.15565204      12.37303637       0.00000000       0.00000000       0.00000000
C       20.21561000       2.65967729       7.14513450       0.00000000       0.00000000       0.00000000
C       21.86719403      16.28909939      10.33002337       0.00000000       0.00000000       0.00000000
C       18.02456658       1.00327151      12.38526204       0.00000000       0.00000000       0.00000000
C       20.77008916       5.76623841      17.34647034       0.00000000       0.00000000       0.00000000
C       21.63308410       4.94932905      11.31592967       0.00000000       0.00000000       0.00000000
C       18.85410592       2.28078759       7.56126499       0.00000000       0.00000000       0.00000000
Hf      22.42292117      12.51538513      17.16258993       0.00000000       0.00000000       0.00000000
Hf      18.14029269      18.77813118      10.84711864       0.00000000       0.00000000       0.00000000
Hf      18.00358458      22.79897979      16.82400925       0.00000000       0.00000000       0.00000000
Hf      20.05597888       3.66352636      12.84716347       0.00000000       0.00000000       0.00000000
Hf      20.92398115       3.15197447       9.48660139       0.00000000       0.00000000       0.00000000
Hf      19.56542989      16.13920854       9.75502845       0.00000000       0.00000000       0.00000000
Hf      21.30441623       7.04661493      13.95723202       0.00000000       0.00000000       0.00000000
Hf      22.28250565      19.38218924      15.42160217       0.00000000       0.00000000       0.00000000
Hf      22.52675475      12.60944152      14.30919615       0.00000000       0.00000000       0.00000000
Nb      22.21716141       7.46370067      17.22866812       0.00000000       0.00000000       0.00000000
Nb      19.57760902      13.97922540      14.38881560       0.00000000       0.00000000       0.00000000
Nb      20.64530129       0.81157607      11.93844607       0.00000000       0.00000000       0.00000000
Ta      22.22178277      22.00224349      13.48980313       0.00000000       0.00000000       0.00000000
Ta      22.34859879       0.47183953       8.88250935       0.00000000       0.00000000       0.00000000
Ta      18.50702113      16.94261190       7.41269819       0.00000000       0.00000000       0.00000000
Ta      22.56345625      15.14694784      16.19009363       0.00000000       0.00000000       0.00000000
Ta      19.97193309      20.93052622      11.42575894       0.00000000       0.00000000       0.00000000
Ta      20.74649780       9.48207453      14.30602963       0.00000000       0.00000000       0.00000000
Ta      22.79114282      18.28484511      11.01266639       0.00000000       0.00000000       0.00000000
Ta      20.54180497      18.64437953       7.94254647       0.00000000       0.00000000       0.00000000
Ta      22.44755114      15.76142009       8.22631324       0.00000000       0.00000000       0.00000000
Ta      21.80377607      12.45710271       9.75769749       0.00000000       0.00000000       0.00000000
Ta      21.38904112       5.45094459       9.33894672       0.00000000       0.00000000       0.00000000
Ti      19.93562861      22.38667822      14.70307310       0.00000000       0.00000000       0.00000000
Ti      19.15759506      10.65666781      16.58525801       0.00000000       0.00000000       0.00000000
Ti      17.94045007       1.38519595       9.36055832       0.00000000       0.00000000       0.00000000
Ti      19.36375122      10.95182909      11.89029492       0.00000000       0.00000000       0.00000000
Ti      20.90415957       3.40530657      16.06954208       0.00000000       0.00000000       0.00000000
Ti      17.87101727      12.03461787       9.56049523       0.00000000       0.00000000       0.00000000
Ti      20.52028377       8.73266011      10.39736633       0.00000000       0.00000000       0.00000000
Zr      18.61356610       5.54081639      14.73958487       0.00000000       0.00000000       0.00000000
Zr      21.41865881      16.36677545      12.86948817       0.00000000       0.00000000       0.00000000
Zr      18.84031866       6.51353924      11.60016509       0.00000000       0.00000000       0.00000000
Zr      18.45665420      16.14315061      12.50928232       0.00000000       0.00000000       0.00000000
Zr      18.68002204      19.12992428      15.11451417       0.00000000       0.00000000       0.00000000
Zr      19.19118773       1.55667848      16.81544288       0.00000000       0.00000000       0.00000000
Zr      17.80025227       8.18255964      15.53244080       0.00000000       0.00000000       0.00000000
